# vtk DataFile Version 2.0
Results
ASCII
DATASET UNSTRUCTURED_GRID
POINTS         27           float
0.0	0.0	0.0	
50.0	0.0	0.0	
100.0	0.0	0.0	
0.0	40.0	0.0	
50.0	40.0	0.0	
100.0	40.0	0.0	
0.0	80.0	0.0	
50.0	80.0	0.0	
100.0	80.0	0.0	
0.0	0.0	70.0	
50.0	0.0	70.0	
100.0	0.0	70.0	
0.0	40.0	70.0	
50.0	40.0	70.0	
100.0	40.0	70.0	
0.0	80.0	70.0	
50.0	80.0	70.0	
100.0	80.0	70.0	
0.0	0.0	140.0	
50.0	0.0	140.0	
100.0	0.0	140.0	
0.0	40.0	140.0	
50.0	40.0	140.0	
100.0	40.0	140.0	
0.0	80.0	140.0	
50.0	80.0	140.0	
100.0	80.0	140.0	

CELLS	8	72
 8	0	1	4	3	9	10	13	12	
 8	1	2	5	4	10	11	14	13	
 8	4	5	8	7	13	14	17	16	
 8	3	4	7	6	12	13	16	15	
 8	9	10	13	12	18	19	22	21	
 8	10	11	14	13	19	20	23	22	
 8	13	14	17	16	22	23	26	25	
 8	12	13	16	15	21	22	25	24	

CELL_TYPES	8
 12
 12
 12
 12
 12
 12
 12
 12

POINT_DATA	27
VECTORS	u 	float 
0.0	0.0	0.0
-0.0072333063	0.0	0.0
-0.0140868464	0.0	0.0
0.0	-0.007810906	0.0
-0.0072403989	-0.0078382225	0.0
-0.0147530115	-0.0076796342	0.0
0.0	-0.0148498743	0.0
-0.0073616787	-0.0163240024	0.0
-0.0146055292	-0.0147080052	0.0
-0.0302036985	-0.0268421698	-0.0013726347
-0.0071952185	-0.0257640404	0.0131703301
0.0157226104	-0.0266536811	-0.0013644985
-0.0301657198	-0.0078638746	0.0088513356
-0.0072769939	-0.007822168	0.0234805169
0.0156786879	-0.0077058754	0.0088361676
-0.0302642943	0.0109346791	-0.0013172283
-0.0073276185	0.0102931642	0.0132124641
0.0155775957	0.0110937408	-0.0013339423
-0.0748108084	-0.0636649089	0.0608316369
-0.0072049955	-0.0638665343	0.0771146498
0.0604436327	-0.0635165001	0.0608114377
-0.0750070626	-0.0079333123	0.0715678638
-0.0072577606	-0.007828877	0.0881194103
0.0604603132	-0.0077699101	0.0715662877
-0.0749716823	0.0478829111	0.0608541133
-0.0073267576	0.0481279783	0.0771779839
0.0603319261	0.0480424126	0.0608447413

VECTORS	v 	float 
0.0	0.0	0.0
7.94044e-05	0.0	0.0
0.000161634	0.0	0.0
0.0	5.60272e-05	0.0
8.61106e-05	6.20998e-05	0.0
0.0001697478	5.57157e-05	0.0
0.0	0.0001148538	0.0
7.76296e-05	0.0001222197	0.0
0.0001573541	0.0001145208	0.0
5.97252e-05	2.97498e-05	8.70222e-05
8.34902e-05	3.62586e-05	6.57219e-05
0.0001063569	3.08798e-05	8.73846e-05
6.67181e-05	5.9005e-05	7.04127e-05
8.14041e-05	5.81135e-05	4.77058e-05
9.70356e-05	6.00334e-05	7.02207e-05
5.92876e-05	8.74385e-05	8.75119e-05
8.2884e-05	8.06762e-05	6.70036e-05
0.0001058687	8.82795e-05	8.77929e-05
0.0002047953	0.000171194	5.50715e-05
8.23334e-05	0.0001799643	1.64059e-05
-3.98538e-05	0.000172072	5.59688e-05
0.0002206382	5.73621e-05	2.36333e-05
8.26519e-05	5.83069e-05	-1.83208e-05
-5.5718e-05	5.83928e-05	2.29011e-05
0.0002035526	-5.63759e-05	5.63467e-05
8.14606e-05	-6.35259e-05	1.67438e-05
-4.05354e-05	-5.51419e-05	5.71314e-05

VECTORS	a 	float 
0.0	0.0	0.0
-0.8942674464	0.0	0.0
-1.7857703434	0.0	0.0
0.0	-0.7208634221	0.0
-0.8864682806	-0.712617878	0.0
-1.7752729795	-0.7207095293	0.0
0.0	-1.4373541229	0.0
-0.8963044865	-1.4285227174	0.0
-1.7910188975	-1.437047458	0.0
0.0042754567	-0.0065967988	3.0722142868
-0.8894281054	0.0020419681	3.0843329359
-1.784002504	-0.00503623	3.0726427442
0.0099567441	-0.7166816761	3.0776675354
-0.8919424392	-0.7178848021	3.087482271
-1.7929551408	-0.7153005838	3.077267641
0.0036470125	-1.4279398544	3.0728464971
-0.8903429454	-1.4367618245	3.0856254113
-1.7848307143	-1.4267394036	3.0731478926
0.0062078743	0.0030666292	6.1580938387
-0.8907821664	0.0148261171	6.1847087433
-1.7875008912	0.0041636802	6.1589262703
0.023474499	-0.7186755574	6.1734520156
-0.8904298898	-0.7173861311	6.196281071
-1.8046867313	-0.7174108245	6.1726265153
0.0047858844	-1.4401552324	6.1594315041
-0.8917863255	-1.4499225472	6.1851372793
-1.7883015873	-1.4387267393	6.160183112

SCALARS	theta	float 1
LOOKUP_TABLE	default
298.1541021316
298.2063019572
298.1572191402
298.1775380702
298.2245637299
298.1775689177
298.1581898093
298.2014784029
298.1581365848
304.8138884989
304.8545428804
304.8135012959
304.8324711819
304.8741168324
304.8325649202
304.8129011413
304.8550181727
304.8128937473
313.3247647243
313.3648501498
313.3246808147
313.3418938168
313.3820326104
313.3417981533
313.3250689616
313.3648896517
313.3250545084

SCALARS	sig_11	float	1
LOOKUP_TABLE	default
15.0769029916
26.4649499419
16.0668087767
23.6530275358
33.6940471112
23.1839310318
15.4890477198
25.1058969361
15.5642979773
-6.6188393602
-1.7631038962
-6.6891240706
-2.7035763265
2.304772571
-2.676084296
-6.8977674939
-1.9066948203
-6.9121314705
-20.4811127741
-19.9649341368
-20.4606131282
-20.205858158
-19.6569531045
-20.2125382851
-20.430553957
-19.9479546554
-20.4232741148

SCALARS	sig_22	float	1
LOOKUP_TABLE	default
9.2714059052
19.8737754708
10.0521847004
18.5612825027
27.209126623
18.5577826337
11.1320349486
18.1685389259
11.1878159701
-5.7664624971
-2.4308994505
-5.8237818724
-1.6987697515
1.8346443049
-1.6963863555
-5.9319763171
-2.3339418012
-5.9339823612
-15.0219925001
-14.6196089094
-15.0078730366
-14.8169998254
-14.4038093463
-14.8109509167
-14.9601805362
-14.6577343186
-14.9613977631

SCALARS	sig_33	float	1
LOOKUP_TABLE	default
25.2073372979
53.1127558491
25.716929173
45.7106751106
72.7033189174
45.5361627748
25.9862909946
52.3238735055
25.9893471619
-8.6720351958
5.5753060655
-8.7289926873
1.6135313617
16.0670150683
1.6161795287
-8.7653117095
5.6263706434
-8.7786268893
-57.9211649804
-55.4259949566
-57.9486730915
-57.1508312671
-54.4892808286
-57.1332590008
-57.9313823204
-55.4071767856
-57.9091698401

SCALARS vonMises	float	1
LOOKUP_TABLE	default
69.892568855
52.5061117659
69.3819705392
56.9769858344
38.1628579391
57.2352300463
69.260331013
53.7191478424
69.3282108853
50.9504158607
46.696996262
50.8626132009
48.6014709634
45.6222502874
48.6416439202
50.8381408204
46.8440566123
50.8471421644
57.2552378069
56.8047737664
57.3585803962
57.1775366137
56.6736560223
57.1391959521
57.4289012448
56.7328860356
57.4203373407
