# vtk DataFile Version 2.0
Results
ASCII
DATASET UNSTRUCTURED_GRID
POINTS         27           float
0.0	0.0	0.0	
50.0	0.0	0.0	
100.0	0.0	0.0	
0.0	40.0	0.0	
50.0	40.0	0.0	
100.0	40.0	0.0	
0.0	80.0	0.0	
50.0	80.0	0.0	
100.0	80.0	0.0	
0.0	0.0	70.0	
50.0	0.0	70.0	
100.0	0.0	70.0	
0.0	40.0	70.0	
50.0	40.0	70.0	
100.0	40.0	70.0	
0.0	80.0	70.0	
50.0	80.0	70.0	
100.0	80.0	70.0	
0.0	0.0	140.0	
50.0	0.0	140.0	
100.0	0.0	140.0	
0.0	40.0	140.0	
50.0	40.0	140.0	
100.0	40.0	140.0	
0.0	80.0	140.0	
50.0	80.0	140.0	
100.0	80.0	140.0	

CELLS	8	72
 8	0	1	4	3	9	10	13	12	
 8	1	2	5	4	10	11	14	13	
 8	4	5	8	7	13	14	17	16	
 8	3	4	7	6	12	13	16	15	
 8	9	10	13	12	18	19	22	21	
 8	10	11	14	13	19	20	23	22	
 8	13	14	17	16	22	23	26	25	
 8	12	13	16	15	21	22	25	24	

CELL_TYPES	8
 12
 12
 12
 12
 12
 12
 12
 12

POINT_DATA	27
VECTORS	u 	float 
0.0	0.0	0.0
0.0007374115	0.0	0.0
0.0017650011	0.0	0.0
0.0	-0.0011210913	0.0
0.0007336841	-0.0011402918	0.0
0.0012593083	-0.0010227723	0.0
0.0	-0.0016630273	0.0
0.0006418145	-0.0027673406	0.0
0.0013753636	-0.001558522	0.0
-0.0240198615	-0.0216047252	0.008469875
0.00076685	-0.0208089889	0.0193477314
0.0254846839	-0.0214638717	0.0084765892
-0.024003268	-0.00115935	0.0161623637
0.0007053345	-0.0011286958	0.0271106051
0.0254652333	-0.0010412136	0.0161513369
-0.0240642085	0.0191509315	0.0085104616
0.0006678708	0.0186813399	0.0193777444
0.0253754872	0.0192700046	0.0084981231
-0.0554234714	-0.0472113558	0.0651930835
0.0007589736	-0.0473833872	0.0764636618
0.0569739355	-0.0471004926	0.0651784584
-0.0556062463	-0.0012103433	0.0724613723
0.0007197361	-0.0011322005	0.0839382701
0.0570219081	-0.0010881405	0.0724606648
-0.0555436255	0.0448540784	0.0652080868
0.0006679474	0.0450584353	0.0765094003
0.0568902927	0.0449735061	0.065201643

VECTORS	v 	float 
0.0	0.0	0.0
8.22685e-05	0.0	0.0
0.0001675243	0.0	0.0
0.0	5.49257e-05	0.0
8.90628e-05	6.18072e-05	0.0
0.0001755194	5.51998e-05	0.0
0.0	0.0001144141	0.0
8.03844e-05	0.0001201637	0.0
0.0001623307	0.000115054	0.0
8.22367e-05	4.73105e-05	4.46797e-05
8.65753e-05	5.57223e-05	4.47458e-05
9.00227e-05	4.8975e-05	4.48661e-05
8.81929e-05	5.82765e-05	4.17814e-05
8.4289e-05	5.74084e-05	4.05109e-05
8.13326e-05	5.97446e-05	4.14077e-05
8.16686e-05	6.80993e-05	4.50033e-05
8.55618e-05	6.02029e-05	4.64453e-05
8.89931e-05	6.93399e-05	4.51989e-05
0.0001733554	0.0001319742	2.13739e-05
8.55038e-05	0.0001408031	2.1581e-05
-2.0324e-06	0.0001332625	2.19675e-05
0.0001892142	5.64078e-05	1.74495e-05
8.56569e-05	5.75892e-05	1.47747e-05
-1.83295e-05	5.78736e-05	1.66921e-05
0.0001716317	-1.89742e-05	2.26412e-05
8.42798e-05	-2.59334e-05	2.222e-05
-3.0014e-06	-1.73119e-05	2.32429e-05

VECTORS	a 	float 
0.0	0.0	0.0
-0.8927046428	0.0	0.0
-1.7807918113	0.0	0.0
0.0	-0.7229977068	0.0
-0.8815785331	-0.7116181541	0.0
-1.7670536875	-0.7227553236	0.0
0.0	-1.4391117024	0.0
-0.8957466649	-1.4284633194	0.0
-1.7888253534	-1.4386215367	0.0
0.0100284678	-0.0094989127	3.0662460085
-0.8857761004	0.0039038741	3.086683635
-1.7829964887	-0.0071067072	3.0668378967
0.0186969628	-0.7173230092	3.0760911229
-0.889443994	-0.7189580322	3.0935979644
-1.7961493575	-0.7152213063	3.0755351835
0.0091118447	-1.4269928102	3.0671913645
-0.8871822556	-1.4401464213	3.088701096
-1.7842747945	-1.425184178	3.0675964438
0.0054011683	0.0026388781	6.1574590346
-0.8877269845	0.0185178381	6.1960099458
-1.7803822409	0.0043081622	6.1586482497
0.0298542818	-0.7202512369	6.1788063726
-0.8872512966	-0.7183458977	6.212415041
-1.8049564477	-0.7183120646	6.1776196353
0.0031847662	-1.4427100965	6.1594765796
-0.889262118	-1.4557523452	6.1967125544
-1.7815924376	-1.4405065327	6.1605562326

SCALARS	theta	float 1
LOOKUP_TABLE	default
299.7814832241
299.8266540542
299.7842639183
299.8032116914
299.8440028292
299.8030721501
299.7847754448
299.8224675604
299.7846575612
305.1715575427
305.1922305779
305.1712854941
305.1808596886
305.2023855395
305.1809988961
305.1706314176
305.192481492
305.1706248165
311.0791719505
311.0838080198
311.0791042573
311.0789543737
311.0836312761
311.0788878354
311.0793709726
311.0838201632
311.0794060447

SCALARS	sig_11	float	1
LOOKUP_TABLE	default
13.5372993911
22.0239010876
14.2849462005
19.9622215541
27.4368267684
19.6035906713
13.8479597806
21.0103209189
13.9106071276
-6.8066125037
-3.2985447676
-6.8606557558
-4.0467401407
-0.4223344169
-4.0259005639
-7.0156813621
-3.4052683363
-7.026843774
-13.305472146
-13.1265911545
-13.2897062658
-13.4273882152
-13.2249160238
-13.4326992857
-13.2675586347
-13.1142432786
-13.2620583989

SCALARS	sig_22	float	1
LOOKUP_TABLE	default
8.78627063
16.6868044208
9.369721558
15.7390127531
22.1758509259
15.7319567298
10.1829119145
15.4113973181
10.2237848245
-5.7878780059
-3.3921911179
-5.8322519315
-2.941384009
-0.3958673873
-2.9399809814
-5.9114963522
-3.3181799741
-5.9135125623
-9.5638671072
-9.4217669821
-9.5527784436
-9.7976667444
-9.6485685757
-9.7930486951
-9.5171366505
-9.4503798616
-9.5178751926

SCALARS	sig_33	float	1
LOOKUP_TABLE	default
22.0075056744
42.8599104079
22.3883614261
37.4080582628
57.5852452942
37.2752584807
22.5907553524
42.2732042323
22.5961249643
-9.2317483859
0.7943189261
-9.2758290765
-2.1608790606
8.0241244656
-2.1588311636
-9.3017632907
0.8339510148
-9.3115391428
-38.5338005781
-37.9033387722
-38.5543752867
-39.2603163224
-38.5059656898
-39.2471726279
-38.5419123553
-37.8893632041
-38.5249443438

SCALARS vonMises	float	1
LOOKUP_TABLE	default
56.7251840552
42.5795780486
56.3353250166
45.8639469273
29.9618414333
46.0622631496
56.2350754249
43.48811882
56.283610398
37.8447975299
34.5400864122
37.7681678694
36.0385664017
33.518612558
36.0755312122
37.7468874526
34.6853952232
37.7536346534
39.673960223
39.8503232588
39.7521262257
39.9606180534
40.0889646829
39.9310863036
39.8042375347
39.7975671776
39.7982587402
