# vtk DataFile Version 2.0
Results
ASCII
DATASET UNSTRUCTURED_GRID
POINTS         27           float
0.0	0.0	0.0	
50.0	0.0	0.0	
100.0	0.0	0.0	
0.0	40.0	0.0	
50.0	40.0	0.0	
100.0	40.0	0.0	
0.0	80.0	0.0	
50.0	80.0	0.0	
100.0	80.0	0.0	
0.0	0.0	70.0	
50.0	0.0	70.0	
100.0	0.0	70.0	
0.0	40.0	70.0	
50.0	40.0	70.0	
100.0	40.0	70.0	
0.0	80.0	70.0	
50.0	80.0	70.0	
100.0	80.0	70.0	
0.0	0.0	140.0	
50.0	0.0	140.0	
100.0	0.0	140.0	
0.0	40.0	140.0	
50.0	40.0	140.0	
100.0	40.0	140.0	
0.0	80.0	140.0	
50.0	80.0	140.0	
100.0	80.0	140.0	

CELLS	8	72
 8	0	1	4	3	9	10	13	12	
 8	1	2	5	4	10	11	14	13	
 8	4	5	8	7	13	14	17	16	
 8	3	4	7	6	12	13	16	15	
 8	9	10	13	12	18	19	22	21	
 8	10	11	14	13	19	20	23	22	
 8	13	14	17	16	22	23	26	25	
 8	12	13	16	15	21	22	25	24	

CELL_TYPES	8
 12
 12
 12
 12
 12
 12
 12
 12

POINT_DATA	27
VECTORS	u 	float 
0.0	0.0	0.0
0.0030094162	0.0	0.0
0.0061041555	0.0	0.0
0.0	0.008010152	0.0
0.0029108795	0.0079567449	0.0
0.0057670395	0.008266296	0.0
0.0	0.0171052892	0.0
0.0027491779	0.0150339002	0.0
0.0052906835	0.0175115758	0.0
0.0214408429	0.0284032864	-0.0273775645
0.0030236374	0.0326651018	-0.0088747873
-0.0154227988	0.02874878	-0.027408227
0.0215189533	0.007893431	-0.0162379832
0.0028982933	0.0079970539	0.0017189365
-0.0157157674	0.0081986839	-0.0163093898
0.0212797753	-0.0128717543	-0.0272811284
0.0027735906	-0.0164170098	-0.0087650812
-0.0156879599	-0.0125705564	-0.027332191
-0.1113724768	-0.0955154017	-0.0028924547
0.003055709	-0.0905953792	0.0507197221
0.117505406	-0.0952209385	-0.0029564212
-0.1105218957	0.007766659	0.0398146835
0.0029379214	0.0079540569	0.093185058
0.1163934703	0.0080762373	0.0397740135
-0.111663132	0.1111688974	-0.0028134327
0.0028189446	0.1063818554	0.050839923
0.1172839797	0.111469109	-0.0028677458

VECTORS	v 	float 
0.0	0.0	0.0
-0.0023405497	0.0	0.0
-0.0046758609	0.0	0.0
0.0	-0.001842745	0.0
-0.0023326481	-0.0018338416	0.0
-0.0046691553	-0.0018399735	0.0
0.0	-0.0036689824	0.0
-0.0023449744	-0.0036810491	0.0
-0.0046894312	-0.0036650079	0.0
-3.91811e-05	4.1419e-05	0.0074176017
-0.0023349069	8.00319e-05	0.0076653002
-0.0046321669	4.64218e-05	0.007417827
-3.71156e-05	-0.0018389745	0.007570964
-0.0023388687	-0.0018393862	0.0078143139
-0.0046394118	-0.001834663	0.00757002
-4.12519e-05	-0.0037233176	0.0074190465
-0.0023382641	-0.0037550003	0.0076675904
-0.0046355739	-0.003719231	0.007418939
-0.0013656048	-0.001163159	0.0156312402
-0.0023361685	-0.0011297055	0.0162031908
-0.0033060855	-0.0011591608	0.0156314423
-0.0013498119	-0.001842299	0.0160603388
-0.0023369024	-0.0018391237	0.0166295683
-0.0033245083	-0.00183791	0.0160592671
-0.0013700406	-0.0025199124	0.0156330495
-0.0023395836	-0.0025501323	0.0162048249
-0.0033091393	-0.0025154339	0.0156334096

VECTORS	a 	float 
0.0	0.0	0.0
-0.6409471775	0.0	0.0
-1.2815893218	0.0	0.0
0.0	-0.5132486746	0.0
-0.6399714887	-0.5122569056	0.0
-1.2802000687	-0.5132495541	0.0
0.0	-1.0260587242	0.0
-0.6411739795	-1.0248379348	0.0
-1.2821527382	-1.0260570358	0.0
-0.0031774398	-0.0034975164	2.2032096328
-0.6403509248	-0.0029203789	2.2038812005
-1.2776208883	-0.0033388183	2.2032557369
-0.0028833635	-0.5127407708	2.2032406225
-0.6406475835	-0.5128903277	2.2037653888
-1.2783113115	-0.5126005817	2.2032019828
-0.0032423345	-1.022103403	2.2032584595
-0.6404388538	-1.0227560148	2.20403849
-1.2776956709	-1.0219847711	2.2032994179
0.0051850464	0.0042045212	4.4032660389
-0.6405183911	0.0050178978	4.4043342545
-1.286195856	0.0043101147	4.4033679568
0.0065867526	-0.5129639238	4.4030103729
-0.6404661129	-0.5128297755	4.4037455652
-1.2875567867	-0.5128393573	4.4029143663
0.0050357792	-1.0301154071	4.4034098575
-0.6406214281	-1.0307020694	4.4043731004
-1.2862734894	-1.0299700332	4.4035088582

SCALARS	theta	float 1
LOOKUP_TABLE	default
302.7722042606
302.491418052
302.756963555
302.6574054395
302.4096412269
302.6540833814
302.7449778633
302.5233501885
302.7479252866
294.6500767835
294.3156002832
294.6522593503
294.4409773987
294.1018667727
294.4412402144
294.6564761573
294.3123006176
294.6560804514
324.266493928
323.7865101274
324.2665090108
323.9333553551
323.4533099482
323.9331860113
324.2648097651
323.7868019209
324.264881425

SCALARS	sig_11	float	1
LOOKUP_TABLE	default
-79.6549911056
-57.563730025
-78.7609818865
-66.4170202081
-46.2991412327
-66.2837231714
-78.8672178292
-60.1583973047
-79.3921296733
55.3847136869
82.3286582172
55.3243367508
78.6603166572
105.6306665568
78.6469246661
54.954858509
82.102264711
54.9741352993
-132.4754287118
-96.8413471254
-132.4767609884
-99.2476929362
-63.5364118967
-99.2347727561
-132.3779740141
-96.8045266884
-132.3966443034

SCALARS	sig_22	float	1
LOOKUP_TABLE	default
-69.5140436397
-49.5901276523
-68.1756373587
-55.1193474116
-38.4229780451
-54.4092130541
-66.5276968173
-52.4966651653
-66.3329043325
43.0979833394
62.3083327144
43.0717049217
67.1166139384
86.4604270742
67.1379796046
42.8339753636
62.4538769747
42.8858286802
-106.8818622114
-80.9096954893
-106.8986290211
-71.9520077483
-45.9453321962
-71.9478181346
-106.7759906073
-80.9635641073
-106.813572878

SCALARS	sig_33	float	1
LOOKUP_TABLE	default
-118.1938184805
-74.9360573147
-117.4770197341
-91.9070642041
-50.8387400692
-91.7523880675
-116.7035739735
-76.5774263691
-116.9442628841
77.4597877811
134.9429047384
77.3725892134
125.7539355646
183.1474062413
125.708525461
77.3321549253
135.0200106697
77.2963275217
-298.6886575367
-222.898950671
-298.7390511382
-227.7170671228
-151.7250922687
-227.6708115099
-298.6522179383
-222.8816507363
-298.6563046114

SCALARS vonMises	float	1
LOOKUP_TABLE	default
105.7773900684
90.1793311385
106.3904559251
77.7480080038
50.9520958901
77.8516508579
107.3748807712
89.0261489833
107.2108515814
203.0109066226
167.5696505095
203.3448480449
161.9449753195
114.6064412942
161.9793746047
203.6541470571
166.7503446851
203.5489809933
210.1727707744
181.7879016135
210.2533294295
192.1196769957
164.8449897906
192.1162284064
210.408869795
181.6647754012
210.3539472998
