# vtk DataFile Version 2.0
Results
ASCII
DATASET UNSTRUCTURED_GRID
POINTS         27           float
0.0	0.0	0.0	
50.0	0.0	0.0	
100.0	0.0	0.0	
0.0	40.0	0.0	
50.0	40.0	0.0	
100.0	40.0	0.0	
0.0	80.0	0.0	
50.0	80.0	0.0	
100.0	80.0	0.0	
0.0	0.0	70.0	
50.0	0.0	70.0	
100.0	0.0	70.0	
0.0	40.0	70.0	
50.0	40.0	70.0	
100.0	40.0	70.0	
0.0	80.0	70.0	
50.0	80.0	70.0	
100.0	80.0	70.0	
0.0	0.0	140.0	
50.0	0.0	140.0	
100.0	0.0	140.0	
0.0	40.0	140.0	
50.0	40.0	140.0	
100.0	40.0	140.0	
0.0	80.0	140.0	
50.0	80.0	140.0	
100.0	80.0	140.0	

CELLS	8	72
 8	0	1	4	3	9	10	13	12	
 8	1	2	5	4	10	11	14	13	
 8	4	5	8	7	13	14	17	16	
 8	3	4	7	6	12	13	16	15	
 8	9	10	13	12	18	19	22	21	
 8	10	11	14	13	19	20	23	22	
 8	13	14	17	16	22	23	26	25	
 8	12	13	16	15	21	22	25	24	

CELL_TYPES	8
 12
 12
 12
 12
 12
 12
 12
 12

POINT_DATA	27
VECTORS	u 	float 
0.0	0.0	0.0
-0.0055233494	0.0	0.0
-0.0106858495	0.0	0.0
0.0	-0.0064048142	0.0
-0.0055296248	-0.006430632	0.0
-0.0113179902	-0.0062810278	0.0
0.0	-0.0120807039	0.0
-0.0056442622	-0.0134730244	0.0
-0.0111757177	-0.0119476423	0.0
-0.0290402512	-0.0259102001	0.0008694369
-0.0054871356	-0.0248973044	0.0145836645
0.0179799905	-0.0257324351	0.0008773229
-0.0290085465	-0.00645458	0.0105284097
-0.0055643448	-0.0064152998	0.0243263475
0.0179435447	-0.0063055475	0.0105142603
-0.0290970872	0.0128312453	0.0009214052
-0.0056120176	0.012230365	0.0146229729
0.017842963	0.0129813322	0.0009056915
-0.0703262615	-0.0598666535	0.0619601853
-0.0054964613	-0.060065436	0.0769577762
0.0593739313	-0.0597265341	0.061941284
-0.0705254518	-0.0065197815	0.0717841689
-0.0055462601	-0.0064212564	0.0870373429
0.0594032589	-0.0063654833	0.0717828752
-0.0704781733	0.0469069766	0.061980783
-0.0056114894	0.0471466632	0.0770170566
0.0592683683	0.0470576367	0.0619721417

VECTORS	v 	float 
0.0	0.0	0.0
6.98121e-05	0.0	0.0
0.000135242	0.0	0.0
0.0	6.67214e-05	0.0
6.25851e-05	5.93274e-05	0.0
0.0001287576	6.60872e-05	0.0
0.0	0.000126291	0.0
7.21695e-05	0.0001242977	0.0
0.0001422111	0.0001253176	0.0
4.14865e-05	5.05826e-05	0.0001097467
6.5106e-05	3.83411e-05	5.66979e-05
8.99828e-05	4.82982e-05	0.0001093827
3.51962e-05	6.31782e-05	7.60163e-05
6.77779e-05	6.40534e-05	2.43986e-05
9.91495e-05	6.12043e-05	7.64751e-05
4.23082e-05	7.75958e-05	0.0001089574
6.65466e-05	8.80337e-05	5.51065e-05
9.13958e-05	7.58458e-05	0.00010877
0.0001845163	0.000159631	4.64762e-05
6.63245e-05	0.0001508015	-3.08486e-05
-5.23556e-05	0.0001578484	4.5816e-05
0.0001684384	6.54174e-05	-4.0594e-06
6.62816e-05	6.37661e-05	-7.9194e-05
-3.5325e-05	6.33969e-05	-3.2545e-06
0.0001867584	-2.93499e-05	4.4991e-05
6.79324e-05	-2.26208e-05	-3.1575e-05
-5.10242e-05	-3.15518e-05	4.43664e-05

VECTORS	a 	float 
0.0	0.0	0.0
0.8938557929	0.0	0.0
1.784618041	0.0	0.0
0.0	0.7213225769	0.0
0.8854150409	0.712453705	0.0
1.7734431316	0.7211525246	0.0
0.0	1.4378124783	0.0
0.8960830185	1.4285468925	0.0
1.7903846976	1.4374739302	0.0
-0.0053470004	0.0072498377	-3.0709394212
0.8886112573	-0.0022606734	-3.0845919035
1.7835389114	0.0055312288	-3.071401206
-0.0116400572	0.7168387122	-3.0772175453
0.8913448853	0.7181233821	-3.0884317559
1.7933448444	0.7153187263	-3.0767870882
-0.0046600198	1.427722934	-3.0716307429
0.8896210457	1.4373448879	-3.0860165013
1.7844554168	1.42640255	-3.0719535896
-0.0065617318	-0.0031182537	-6.1581429176
0.8900744423	-0.0157033418	-6.1869145528
1.7864043208	-0.0043385974	-6.1590464722
-0.0253106311	0.7190118146	-6.1746822053
0.8897058395	0.7176022262	-6.1994135056
1.8051175092	0.7176058138	-6.1737858328
-0.0049786968	1.4408492971	-6.1596076885
0.8911933792	1.4512701689	-6.1873923121
1.7872982819	1.4392619412	-6.160423628

SCALARS	theta	float 1
LOOKUP_TABLE	default
298.4924922563
298.5439393761
298.495592214
298.5161061751
298.5625027771
298.5160742439
298.4964253681
298.539207124
298.4963498598
304.9326695627
304.967205257
304.9323122902
304.9483328285
304.9838363974
304.9484459694
304.931682299
304.9676176814
304.9316760789
312.776699393
312.8045883058
312.7766129382
312.7876753772
312.815617081
312.787583203
312.7769772405
312.8046271441
312.7769759858

SCALARS	sig_11	float	1
LOOKUP_TABLE	default
15.1017093157
25.824557812
16.0380927286
23.1904869644
32.6413390317
22.7448452383
15.4908955398
24.5443360873
15.5645795851
-6.9700094549
-2.4423501195
-7.0368323416
-3.3459910022
1.3263415275
-3.3199389571
-7.2331424617
-2.5775546485
-7.2468789209
-18.5113727666
-18.1066084662
-18.491833047
-18.3804142321
-17.9451090549
-18.3868132463
-18.4637072925
-18.0907295351
-18.4567739055

SCALARS	sig_22	float	1
LOOKUP_TABLE	default
9.4686255424
19.4511276811
10.2043606695
18.2285941856
26.3675217418
18.2232753368
11.2246206211
17.8433183451
11.2766976139
-6.016653122
-2.9124881541
-6.0712748718
-2.2587388548
1.0326128859
-2.2566698599
-6.1726593595
-2.8206027016
-6.1747923827
-13.5013780308
-13.1851505978
-13.4878246627
-13.4588465657
-13.1328084022
-13.4530813208
-13.442966735
-13.2211642907
-13.4440049015

SCALARS	sig_33	float	1
LOOKUP_TABLE	default
25.0135806998
51.3110240204
25.4939527419
44.3678424367
69.8073435275
44.2023077962
25.748001076
50.5685133745
25.7520706192
-9.2546556593
3.9268175946
-9.3088607396
0.1967650815
13.5742491802
0.1992839803
-9.3426681605
3.975389389
-9.3551653131
-52.7230489735
-50.8578579836
-52.7489347155
-52.5085031013
-50.4865723499
-52.4919131571
-52.7329317394
-50.8401566385
-52.7117988251

SCALARS vonMises	float	1
LOOKUP_TABLE	default
67.6555410242
50.807422094
67.1708334336
55.00267
36.537143936
55.2478359254
67.0522022032
51.9505813812
67.1152719112
47.9229277774
43.8400134804
47.8355753916
45.6777714852
42.7533806996
45.7183379513
47.8112942212
43.9929437161
47.819891079
52.7501381683
52.5165190956
52.8480156185
52.8068069592
52.5183449412
52.7703128083
52.9140963681
52.449050394
52.9063140455
