# vtk DataFile Version 2.0
Results
ASCII
DATASET UNSTRUCTURED_GRID
POINTS         27           float
0.0	0.0	0.0	
50.0	0.0	0.0	
100.0	0.0	0.0	
0.0	40.0	0.0	
50.0	40.0	0.0	
100.0	40.0	0.0	
0.0	80.0	0.0	
50.0	80.0	0.0	
100.0	80.0	0.0	
0.0	0.0	70.0	
50.0	0.0	70.0	
100.0	0.0	70.0	
0.0	40.0	70.0	
50.0	40.0	70.0	
100.0	40.0	70.0	
0.0	80.0	70.0	
50.0	80.0	70.0	
100.0	80.0	70.0	
0.0	0.0	140.0	
50.0	0.0	140.0	
100.0	0.0	140.0	
0.0	40.0	140.0	
50.0	40.0	140.0	
100.0	40.0	140.0	
0.0	80.0	140.0	
50.0	80.0	140.0	
100.0	80.0	140.0	

CELLS	8	72
 8	0	1	4	3	9	10	13	12	
 8	1	2	5	4	10	11	14	13	
 8	4	5	8	7	13	14	17	16	
 8	3	4	7	6	12	13	16	15	
 8	9	10	13	12	18	19	22	21	
 8	10	11	14	13	19	20	23	22	
 8	13	14	17	16	22	23	26	25	
 8	12	13	16	15	21	22	25	24	

CELL_TYPES	8
 12
 12
 12
 12
 12
 12
 12
 12

POINT_DATA	27
VECTORS	u 	float 
0.0	0.0	0.0
0.0047664021	0.0	0.0
0.0095582981	0.0	0.0
0.0	0.0081426376	0.0
0.0046932011	0.0080900444	0.0
0.0093675736	0.0083188754	0.0
0.0	0.0170017146	0.0
0.0045825646	0.015605497	0.0
0.0090010462	0.017292026	0.0
0.0194503342	0.0239838477	-0.0190318338
0.0047720371	0.0271672411	-0.0073574681
-0.0099180804	0.0242223253	-0.0190569288
0.0195706077	0.0080510188	-0.0121362355
0.0046867777	0.0081267972	-0.0009038295
-0.0101974006	0.0082639948	-0.0121895406
0.0193362105	-0.0080516458	-0.018967686
0.0045988357	-0.0107442892	-0.0072751024
-0.0101024366	-0.0078420922	-0.0190046127
-0.0710700703	-0.0611698016	-0.0082040361
0.0047984829	-0.0572037664	0.0282558143
0.080678287	-0.0609634917	-0.0082503612
-0.0702856514	0.0079641912	0.0211317603
0.0047155317	0.0080925791	0.0573641095
0.0797157148	0.0081791849	0.0211006836
-0.0712718768	0.077177689	-0.0081448513
0.0046331306	0.0733077069	0.0283387702
0.0805243756	0.0773860648	-0.0081854945

VECTORS	v 	float 
0.0	0.0	0.0
-0.002261632	0.0	0.0
-0.0045220316	0.0	0.0
0.0	-0.0017504505	0.0
-0.002257103	-0.0017403996	0.0
-0.0045148959	-0.001746749	0.0
0.0	-0.0034857195	0.0
-0.0022647755	-0.0034933684	0.0
-0.0045326543	-0.003479877	0.0
0.0001845101	0.0002764532	0.0073992567
-0.002257748	0.0003189686	0.0076375268
-0.0047004654	0.0002812523	0.0073991947
0.0001761641	-0.0017456036	0.0075430382
-0.002260755	-0.0017461771	0.0077734203
-0.0046974849	-0.0017414884	0.0075416679
0.0001823644	-0.0037713007	0.0074008455
-0.0022612365	-0.0038076579	0.0076386704
-0.0047041579	-0.0037673474	0.0074004426
-0.0014975905	-0.00128069	0.0155402221
-0.0022583444	-0.001232366	0.016210821
-0.0030187385	-0.0012770285	0.0155396284
-0.0014949508	-0.0017485454	0.0160703133
-0.0022592761	-0.0017453427	0.0167361349
-0.0030237718	-0.0017445884	0.0160694359
-0.0015013912	-0.0022147987	0.0155417427
-0.0022612788	-0.0022599996	0.0162119225
-0.0030214098	-0.0022108932	0.0155412564

VECTORS	a 	float 
0.0	0.0	0.0
-0.3898686124	0.0	0.0
-0.7796303091	0.0	0.0
0.0	-0.3122581028	0.0
-0.3896224857	-0.3120355524	0.0
-0.7793333327	-0.3122735696	0.0
0.0	-0.6244094582	0.0
-0.3899370457	-0.6241472032	0.0
-0.7797887815	-0.624437149	0.0
-0.0022366896	-0.0025137703	1.340771851
-0.3897220191	-0.002448041	1.340716589
-0.777240565	-0.0024774311	1.3407863387
-0.0021010245	-0.3121486949	1.3406657714
-0.3897977426	-0.3121845916	1.3406173445
-0.777461118	-0.3121160075	1.3406634465
-0.0022511554	-0.6218142095	1.3407855276
-0.389739027	-0.6218963768	1.3407624633
-0.7772518045	-0.6217867604	1.3407981807
0.004249056	0.0035888815	2.6797576605
-0.3897683674	0.0035871831	2.6788103825
-0.783778377	0.003610499	2.6797949337
0.0045876489	-0.3122050293	2.6786868943
-0.389753153	-0.3121746829	2.6776707312
-0.7841047409	-0.3121778737	2.67866038
0.0042140905	-0.6279965185	2.6798006022
-0.3897915494	-0.6279404092	2.6788196346
-0.7837946559	-0.6279626258	2.6798357325

SCALARS	theta	float 1
LOOKUP_TABLE	default
302.5530168236
302.3141973307
302.5406854115
302.4601828459
302.2577028539
302.4559857686
302.5225125957
302.3480310804
302.5267029624
295.8533555552
295.5141784024
295.855563344
295.6026391527
295.2586853601
295.6033249018
295.8605246196
295.5094977329
295.8597925679
316.3484278249
315.8122659104
316.3482018641
315.9134667988
315.3770131703
315.913002354
316.3460860733
315.8133563515
316.3464151889

SCALARS	sig_11	float	1
LOOKUP_TABLE	default
-60.8550385525
-45.2045297202
-60.2786657938
-51.5841730579
-37.4100792987
-51.4172791119
-60.1979911398
-47.115674931
-60.6236620996
39.2590765769
60.1034553891
39.2163544232
57.8360903816
78.6780442553
57.8204499004
38.9595533816
59.9542126141
38.976685267
-97.2511189051
-68.284196308
-97.2526488579
-69.4924948277
-40.4576920133
-69.4791845451
-97.1756565436
-68.262440732
-97.1925034461

SCALARS	sig_22	float	1
LOOKUP_TABLE	default
-52.7202748276
-38.6724404335
-51.7885411057
-42.6463591397
-30.9240382433
-42.0863015726
-50.5889889452
-40.7540898386
-50.4678315703
30.3734533369
45.436878182
30.3552665897
49.5178490563
64.6538851802
49.5312688835
30.1865773807
45.5415765378
30.2267172093
-79.1064544074
-57.6922353915
-79.1198979308
-50.0138875282
-28.5610463815
-50.0084876554
-79.0277406929
-57.733283408
-79.0584478264

SCALARS	sig_33	float	1
LOOKUP_TABLE	default
-93.7482608786
-64.7834201933
-93.253898606
-76.3962046064
-49.1229907153
-76.2392220846
-92.6024395425
-66.0358538072
-92.8100566387
52.1068022035
93.7683872757
52.0399027673
87.9838975467
129.5547995377
87.945141099
52.0158581498
93.8269381354
51.9900020894
-216.1710082951
-158.746132731
-216.2029188832
-161.3406128007
-103.7499395024
-161.3028227371
-216.1315916436
-158.7444205986
-216.1400034625

SCALARS vonMises	float	1
LOOKUP_TABLE	default
86.251980802
72.3064944733
86.6407606935
64.0386623375
40.0546114933
64.1337350549
87.2869241667
71.4845532564
87.15991323
145.8712635552
118.8167757061
146.0848434783
114.8169116142
77.8745299936
114.8555037284
146.2967068607
118.251748581
146.2189775616
147.4881287518
126.0193245709
147.535524227
133.489334246
112.5578016916
133.4882700847
147.6461063626
125.9355119604
147.6061659921
