# vtk DataFile Version 2.0
Results
ASCII
DATASET UNSTRUCTURED_GRID
POINTS         27           float
0.0	0.0	0.0	
50.0	0.0	0.0	
100.0	0.0	0.0	
0.0	40.0	0.0	
50.0	40.0	0.0	
100.0	40.0	0.0	
0.0	80.0	0.0	
50.0	80.0	0.0	
100.0	80.0	0.0	
0.0	0.0	70.0	
50.0	0.0	70.0	
100.0	0.0	70.0	
0.0	40.0	70.0	
50.0	40.0	70.0	
100.0	40.0	70.0	
0.0	80.0	70.0	
50.0	80.0	70.0	
100.0	80.0	70.0	
0.0	0.0	140.0	
50.0	0.0	140.0	
100.0	0.0	140.0	
0.0	40.0	140.0	
50.0	40.0	140.0	
100.0	40.0	140.0	
0.0	80.0	140.0	
50.0	80.0	140.0	
100.0	80.0	140.0	

CELLS	8	72
 8	0	1	4	3	9	10	13	12	
 8	1	2	5	4	10	11	14	13	
 8	4	5	8	7	13	14	17	16	
 8	3	4	7	6	12	13	16	15	
 8	9	10	13	12	18	19	22	21	
 8	10	11	14	13	19	20	23	22	
 8	13	14	17	16	22	23	26	25	
 8	12	13	16	15	21	22	25	24	

CELL_TYPES	8
 12
 12
 12
 12
 12
 12
 12
 12

POINT_DATA	27
VECTORS	u 	float 
0.0	0.0	0.0
-0.0023999432	0.0	0.0
-0.0044742857	0.0	0.0
0.0	-0.0037881343	0.0
-0.0024056952	-0.0038119914	0.0
-0.005044865	-0.0036774158	0.0
0.0	-0.0069236236	0.0
-0.0025078516	-0.0081721465	0.0
-0.0049130609	-0.006805499	0.0
-0.026646859	-0.0238922817	0.0047495899
-0.0023677106	-0.0229906697	0.0170197508
0.0218340344	-0.0237334914	0.004756905
-0.0266231191	-0.0038327909	0.0134125663
-0.0024367077	-0.0037977531	0.025760431
0.0218072072	-0.0036996433	0.0134001407
-0.0266971646	0.0160745776	0.0047956551
-0.0024792712	0.0155414946	0.0170541708
0.0217112622	0.0162087555	0.0047816378
-0.062672986	-0.0533723586	0.0637039647
-0.0023762613	-0.053559874	0.0766997162
0.0579569912	-0.0532473579	0.0636872428
-0.0628675756	-0.0038904465	0.072139355
-0.0024206494	-0.0038024824	0.0853663727
0.0579995431	-0.0037527179	0.0721384915
-0.062808492	0.045662974	0.0637214615
-0.0024788632	0.0458866622	0.0767520199
0.0578627767	0.0457975011	0.063713952

VECTORS	v 	float 
0.0	0.0	0.0
6.70148e-05	0.0	0.0
0.0001388737	0.0	0.0
0.0	5.35243e-05	0.0
7.52792e-05	6.0215e-05	0.0
0.00014638	5.33731e-05	0.0
0.0	0.000112451	0.0
6.44611e-05	0.0001163306	0.0
0.0001321152	0.0001124772	0.0
6.49333e-05	3.97592e-05	7.51445e-05
7.21453e-05	5.1413e-05	6.68442e-05
7.79397e-05	4.16988e-05	7.54862e-05
7.17464e-05	5.65529e-05	6.45248e-05
6.93319e-05	5.56457e-05	5.51137e-05
6.8406e-05	5.82359e-05	6.42594e-05
6.42379e-05	7.1804e-05	7.58483e-05
7.10589e-05	6.12728e-05	6.88637e-05
7.70447e-05	7.31412e-05	7.60998e-05
0.0001484764	0.0001360216	2.84329e-05
7.06851e-05	0.0001457745	2.28648e-05
-6.5853e-06	0.0001373574	2.93697e-05
0.0001635928	5.42997e-05	1.58872e-05
7.10037e-05	5.56974e-05	7.8618e-06
-2.22637e-05	5.59079e-05	1.50209e-05
0.0001464638	-2.70957e-05	3.01819e-05
6.93613e-05	-3.48646e-05	2.35906e-05
-7.578e-06	-2.51793e-05	3.1065e-05

VECTORS	a 	float 
0.0	0.0	0.0
-0.8941807264	0.0	0.0
-1.7844576321	0.0	0.0
0.0	-0.7222775536	0.0
-0.8845168632	-0.7124369649	0.0
-1.7723275349	-0.7221059432	0.0
0.0	-1.4387341291	0.0
-0.8968294623	-1.4292740623	0.0
-1.7913648002	-1.4383781611	0.0
0.0066555999	-0.0087455343	3.0694723472
-0.8881748077	0.0028795842	3.086336289
-1.7842105496	-0.0067033681	3.0699975614
0.0142740487	-0.7173669594	3.0773168036
-0.8913465528	-0.7187811763	3.0915413404
-1.7957459368	-0.7155663609	3.0768463824
0.0058539307	-1.427555863	3.0702950147
-0.8893693946	-1.4390330597	3.0880583029
-1.7852839553	-1.4260013534	3.0706544885
0.0040384465	0.0023444726	6.1576218801
-0.8898691175	0.0165644982	6.1914149291
-1.7833834601	0.003779858	6.1586738554
0.0255275137	-0.7198872737	6.1765255644
-0.8894541794	-0.7182497638	6.2058835545
-1.8049362312	-0.7182235191	6.1754966985
0.0021456334	-1.4417547825	6.1593566745
-0.8911912083	-1.4535170424	6.1920122558
-1.7844324134	-1.4398665922	6.1603081137

SCALARS	theta	float 1
LOOKUP_TABLE	default
299.1281130887
299.1771156939
299.1311149903
299.1512690125
299.1954547983
299.1511597641
299.1317959708
299.1725648838
299.1316920009
305.0803043969
305.1066495944
305.0799882582
305.0922015048
305.119479174
305.0923333554
305.079320168
305.1069832165
305.0793154542
311.8851395867
311.8982749612
311.8850611745
311.8888860287
311.9020655508
311.8888064226
311.8853863215
311.8982953605
311.885405115

SCALARS	sig_11	float	1
LOOKUP_TABLE	default
14.5629679678
24.1484138695
15.4046862873
21.8104187901
30.2543066166
21.4083059975
14.9135901624
23.0029411336
14.9819220577
-7.0985612298
-3.1032161367
-7.1590441306
-3.9306826293
0.1951245067
-3.9073049434
-7.3344865769
-3.2240214697
-7.3469062427
-15.6394792685
-15.3730637435
-15.6217931671
-15.6733327473
-15.3799729824
-15.6791712932
-15.5966259888
-15.3590637344
-15.5904254324

SCALARS	sig_22	float	1
LOOKUP_TABLE	default
9.3295950571
18.2562295978
9.9885857177
17.1736947077
24.4481249126
17.1674080647
10.9049008021
16.8161096138
10.951171843
-6.0688881644
-3.3346101864
-6.1184819016
-2.7951970797
0.1074677307
-2.7935939027
-6.2085621434
-3.2516562803
-6.2106654703
-11.3121813326
-11.1020947985
-11.2998147192
-11.4533498341
-11.2349275965
-11.4481036926
-11.2595888425
-11.1344302956
-11.2604735787

SCALARS	sig_33	float	1
LOOKUP_TABLE	default
23.8415440908
47.3660930838
24.271807784
41.1918710971
63.9506812131
41.0427848077
24.5003183846
46.7021317142
24.5051791268
-9.5557410321
1.9455069361
-9.6049667874
-1.3869321426
10.2918161306
-1.3847783544
-9.634715648
1.9895921144
-9.6457877648
-44.9478209012
-43.8545094292
-44.970998466
-45.3617076927
-44.1283681915
-45.3467740179
-44.9566849102
-43.8388342403
-44.9376509372

SCALARS vonMises	float	1
LOOKUP_TABLE	default
62.5979749434
46.9943578713
62.1617214688
50.7199259052
33.3452514227
50.9402098584
62.0513275035
48.0155921476
62.1074300211
42.7543024531
39.0456558335
42.6716584151
40.7228577408
37.9694515671
40.7617799243
42.6485988185
39.1983197141
42.656747022
45.7267131563
45.7557844226
45.8147278876
45.9357408416
45.9123530549
45.9025435401
45.8737487101
45.6958053443
45.8669568005
