# vtk DataFile Version 2.0
Results
ASCII
DATASET UNSTRUCTURED_GRID
POINTS         27           float
0.0	0.0	0.0	
50.0	0.0	0.0	
100.0	0.0	0.0	
0.0	40.0	0.0	
50.0	40.0	0.0	
100.0	40.0	0.0	
0.0	80.0	0.0	
50.0	80.0	0.0	
100.0	80.0	0.0	
0.0	0.0	70.0	
50.0	0.0	70.0	
100.0	0.0	70.0	
0.0	40.0	70.0	
50.0	40.0	70.0	
100.0	40.0	70.0	
0.0	80.0	70.0	
50.0	80.0	70.0	
100.0	80.0	70.0	
0.0	0.0	140.0	
50.0	0.0	140.0	
100.0	0.0	140.0	
0.0	40.0	140.0	
50.0	40.0	140.0	
100.0	40.0	140.0	
0.0	80.0	140.0	
50.0	80.0	140.0	
100.0	80.0	140.0	

CELLS	8	72
 8	0	1	4	3	9	10	13	12	
 8	1	2	5	4	10	11	14	13	
 8	4	5	8	7	13	14	17	16	
 8	3	4	7	6	12	13	16	15	
 8	9	10	13	12	18	19	22	21	
 8	10	11	14	13	19	20	23	22	
 8	13	14	17	16	22	23	26	25	
 8	12	13	16	15	21	22	25	24	

CELL_TYPES	8
 12
 12
 12
 12
 12
 12
 12
 12

POINT_DATA	27
VECTORS	u 	float 
0.0	0.0	0.0
-0.0092278094	0.0	0.0
-0.0180541865	0.0	0.0
0.0	-0.0094138954	0.0
-0.0092364684	-0.0094430708	0.0
-0.0187604726	-0.0092732985	0.0
0.0	-0.0180034119	0.0
-0.0093654797	-0.0195772685	0.0
-0.0186081013	-0.0178501717	0.0
-0.0313522133	-0.0276849845	-0.0041567422
-0.009187607	-0.0265235165	0.0114091733
0.0128809293	-0.0274830369	-0.0041483934
-0.0313047822	-0.009470873	0.006755625
-0.0092749054	-0.0094259039	0.0224095532
0.0128256184	-0.0093015843	0.0067390821
-0.0314177693	0.0085513889	-0.0040970386
-0.0093294757	0.007857159	0.0114549068
0.0127259334	0.008721718	-0.0041150073
-0.0804575606	-0.0684397391	0.0592670453
-0.0091976064	-0.0686393016	0.0773199158
0.0621077753	-0.0682804942	0.0592451908
-0.0806439558	-0.009545664	0.0712841307
-0.0092543895	-0.0094337902	0.0896201823
0.0621021843	-0.0093704283	0.0712820897
-0.0806300468	0.0494388148	0.0592920075
-0.0093282685	0.0496853553	0.0773883356
0.0619878787	0.0496098255	0.0592816547

VECTORS	v 	float 
0.0	0.0	0.0
6.91655e-05	0.0	0.0
0.000134183	0.0	0.0
0.0	6.28928e-05	0.0
6.22996e-05	5.53966e-05	0.0
0.0001280011	6.217e-05	0.0
0.0	0.0001185755	0.0
7.15111e-05	0.0001164921	0.0
0.0001411281	0.0001174349	0.0
2.62241e-05	3.12435e-05	0.0001208627
6.46537e-05	1.84344e-05	6.43089e-05
0.0001042892	2.89061e-05	0.0001204842
1.96801e-05	5.92922e-05	8.51554e-05
6.72662e-05	6.01585e-05	3.03133e-05
0.0001136918	5.72756e-05	8.56844e-05
2.70835e-05	8.91713e-05	0.0001200621
6.61402e-05	0.0001001322	6.27373e-05
0.0001057528	8.73836e-05	0.0001198591
0.0002132626	0.000183387	6.6062e-05
6.58022e-05	0.0001735477	-3.23853e-05
-8.21312e-05	0.0001815539	6.54151e-05
0.0001963548	6.1543e-05	-1.9645e-06
6.58074e-05	5.98597e-05	-9.80151e-05
-6.42084e-05	5.94699e-05	-1.1221e-06
0.0002155418	-6.08634e-05	6.45743e-05
6.7449e-05	-5.31707e-05	-3.31137e-05
-8.07597e-05	-6.31103e-05	6.39568e-05

VECTORS	a 	float 
0.0	0.0	0.0
0.8947559521	0.0	0.0
1.7871318361	0.0	0.0
0.0	0.7203255755	0.0
0.8876999189	0.7128100959	0.0
1.7774125044	0.7201914057	0.0
0.0	1.4368182731	0.0
0.8965697298	1.4284933089	0.0
1.7917725332	1.4365502353	0.0
-0.0030185501	0.0058311678	-3.0737199539
0.8903864276	-0.0017826864	-3.0840333518
1.7845467555	0.0044566581	-3.074108476
-0.0079763627	0.7164974654	-3.0781917879
0.8926451202	0.7176054406	-3.0863609692
1.7924956801	0.7152799019	-3.0778291233
-0.0024591503	1.4281938427	-3.0742827894
0.89118939	1.4360762342	-3.0851710756
1.7852707881	1.4271345443	-3.0745581677
-0.0057947939	-0.0030079584	-6.158048946
0.8916139401	-0.0137977404	-6.1821245748
1.7887922337	-0.003959841	-6.158797155
-0.0213208353	0.7182812648	-6.1720019369
0.8912798786	0.7171330007	-6.1925922885
1.8041830132	0.7171829453	-6.1712608589
-0.0045621786	1.4393432792	-6.1592374704
0.8924828767	1.4483431593	-6.1824954336
1.7894829659	1.4381017252	-6.1599125349

SCALARS	theta	float 1
LOOKUP_TABLE	default
297.7731390901
297.8251740565
297.7762000807
297.7956201287
297.8424033698
297.7957634261
297.777376925
297.820300316
297.7773487208
304.621651474
304.6716370712
304.621225628
304.6448315278
304.6958194291
304.6448891097
304.620682436
304.6721972899
304.6206726895
314.0490188877
314.1090124062
314.0489454436
314.0765116026
314.1365605498
314.076417419
314.0493537603
314.1090478211
314.0493223537

SCALARS	sig_11	float	1
LOOKUP_TABLE	default
14.5918416106
26.8074503157
15.6458473816
23.7672491744
34.5448621188
23.2712058161
15.0318655473
25.3509499341
15.1075841598
-5.8114605516
-0.5223407951
-5.8857514378
-1.501908669
3.9492475677
-1.472714826
-6.1097613201
-0.6762739557
-6.1247775372
-23.3264898134
-22.6273325087
-23.3049475129
-22.8076010674
-22.072930842
-22.8146125205
-23.2723387993
-22.6089321854
-23.2647100301

SCALARS	sig_22	float	1
LOOKUP_TABLE	default
8.6556760119
20.0300708278
9.4922299596
18.5969528669
27.8807810756
18.5969278347
10.6443027281
18.2050937583
10.7051676856
-5.1598191149
-1.5159311623
-5.2201726232
-0.6713418869
3.1832564773
-0.6684416649
-5.3370305812
-1.4128500509
-5.3387187826
-17.2404620119
-16.6971460322
-17.2257927266
-16.7595163248
-16.2040583631
-16.753185545
-17.174476056
-16.7378127158
-17.1760006158

SCALARS	sig_33	float	1
LOOKUP_TABLE	default
24.8064270104
54.7042465308
25.3519242407
46.7151391427
75.6317745198
46.5301498653
25.6401642897
53.8578978096
25.6415175823
-7.3995125469
8.2958065614
-7.4596631431
4.0414471573
19.9546780358
4.0442647865
-7.4992223392
8.3498401879
-7.5135535682
-65.3134907704
-61.786867977
-65.343071095
-63.5955532068
-59.8907097287
-63.5768267108
-65.3239754609
-61.7666359094
-65.3005658137

SCALARS vonMises	float	1
LOOKUP_TABLE	default
71.7586298323
53.947353486
71.2180105576
58.7656261904
39.8958949041
59.0377803634
71.0950201783
55.2459453856
71.1693168136
54.792519763
50.3933097179
54.7071832059
52.3404610289
49.3293177813
52.3785516786
54.683182501
50.5244033715
54.6927326938
63.4618019008
62.6417370058
63.5714989272
63.1477686145
62.281226613
63.1078024167
63.6469803389
62.5645089959
63.6373979312
