# vtk DataFile Version 2.0
Results
ASCII
DATASET UNSTRUCTURED_GRID
POINTS         27           float
0.0	0.0	0.0	
50.0	0.0	0.0	
100.0	0.0	0.0	
0.0	40.0	0.0	
50.0	40.0	0.0	
100.0	40.0	0.0	
0.0	80.0	0.0	
50.0	80.0	0.0	
100.0	80.0	0.0	
0.0	0.0	70.0	
50.0	0.0	70.0	
100.0	0.0	70.0	
0.0	40.0	70.0	
50.0	40.0	70.0	
100.0	40.0	70.0	
0.0	80.0	70.0	
50.0	80.0	70.0	
100.0	80.0	70.0	
0.0	0.0	140.0	
50.0	0.0	140.0	
100.0	0.0	140.0	
0.0	40.0	140.0	
50.0	40.0	140.0	
100.0	40.0	140.0	
0.0	80.0	140.0	
50.0	80.0	140.0	
100.0	80.0	140.0	

CELLS	8	72
 8	0	1	4	3	9	10	13	12	
 8	1	2	5	4	10	11	14	13	
 8	4	5	8	7	13	14	17	16	
 8	3	4	7	6	12	13	16	15	
 8	9	10	13	12	18	19	22	21	
 8	10	11	14	13	19	20	23	22	
 8	13	14	17	16	22	23	26	25	
 8	12	13	16	15	21	22	25	24	

CELL_TYPES	8
 12
 12
 12
 12
 12
 12
 12
 12

POINT_DATA	27
VECTORS	u 	float 
0.0	0.0	0.0
-0.0033286434	0.0	0.0
-0.006320791	0.0	0.0
0.0	-0.004571427	0.0
-0.0033339761	-0.0045954256	0.0
-0.0069092955	-0.004456844	0.0
0.0	-0.0084672417	0.0
-0.0034405371	-0.0097581494	0.0
-0.0067751327	-0.0083447257	0.0
-0.0273864825	-0.0245258876	0.003616566
-0.0032948977	-0.0235914159	0.0163112303
0.0207166343	-0.0243613924	0.003624049
-0.0273610516	-0.0046173894	0.0125731982
-0.0033665071	-0.0045811869	0.0253476376
0.0206874932	-0.0044794646	0.0125602629
-0.0274387112	0.0151336566	0.0036643504
-0.0034104415	0.0145805889	0.0163472489
0.0205895891	0.0152725993	0.0036498417
-0.0648911794	-0.0552566446	0.0632166875
-0.0033038015	-0.0554482416	0.0767742674
0.0583213438	-0.0551271804	0.0631993571
-0.0650885617	-0.0046773819	0.0720369542
-0.0033497264	-0.0045862443	0.0858332557
0.0583614536	-0.0045347443	0.0720359272
-0.0650315845	0.0459758785	0.0632351513
-0.0034100774	0.0462051139	0.0768286821
0.0582238023	0.0461152044	0.0632273694

VECTORS	v 	float 
0.0	0.0	0.0
8.02818e-05	0.0	0.0
0.0001536059	0.0	0.0
0.0	6.73264e-05	0.0
7.23749e-05	6.18718e-05	0.0
0.0001505071	6.70014e-05	0.0
0.0	0.000125627	0.0
8.35411e-05	0.0001308666	0.0
0.0001629732	0.0001251036	0.0
5.28025e-05	5.9013e-05	9.48181e-05
7.53079e-05	4.09026e-05	3.76783e-05
9.97501e-05	5.63201e-05	9.44567e-05
4.47377e-05	6.52659e-05	6.08044e-05
7.84554e-05	6.59541e-05	4.3397e-06
0.0001102721	6.29824e-05	6.10696e-05
5.36778e-05	7.39435e-05	9.38005e-05
7.68685e-05	8.87715e-05	3.535e-05
0.0001011109	7.2032e-05	9.36536e-05
0.0002050726	0.0001570711	4.82522e-05
7.69571e-05	0.0001475558	-3.52331e-05
-5.19228e-05	0.0001555321	4.73967e-05
0.0001899457	6.77313e-05	1.0255e-06
7.66524e-05	6.60125e-05	-8.13827e-05
-3.57615e-05	6.58324e-05	1.8666e-06
0.0002073949	-2.23538e-05	4.63275e-05
7.83686e-05	-1.46363e-05	-3.63415e-05
-5.0905e-05	-2.45663e-05	4.54852e-05

VECTORS	a 	float 
0.0	0.0	0.0
0.8939619094	0.0	0.0
1.7842888935	0.0	0.0
0.0	0.7219727006	0.0
0.884679419	0.7124248073	0.0
1.7724263393	0.7218022638	0.0
0.0	1.4384471429	0.0
0.8964767712	1.4289996093	0.0
1.7908287095	1.4380990827	0.0
-0.0063120342	0.0082739301	-3.0698298752
0.8881937494	-0.0026549754	-3.0856589676
1.7838274624	0.0063364008	-3.0703358989
-0.0135246824	0.7171875948	-3.0771819472
0.8912268727	0.7185625426	-3.0904298114
1.7948352198	0.7154768849	-3.0767241868
-0.0055465022	1.4275791936	-3.0706101158
0.8893287428	1.4384525345	-3.0872842331
1.7848508427	1.4260984468	-3.0709589536
-0.0051638096	-0.002681296	-6.1578665682
0.8898148707	-0.0163964717	-6.1900018853
1.7844298015	-0.0040500301	-6.1588734175
-0.0258313037	0.7195977578	-6.176028665
0.8894152004	0.7180327049	-6.2038384285
1.8051263444	0.7180150305	-6.1750406318
-0.0033701317	1.4415366412	-6.1595145563
0.8910737219	1.4528840888	-6.1905597916
1.7854316318	1.439743911	-6.1604244579

SCALARS	theta	float 1
LOOKUP_TABLE	default
298.9374933298
298.9870637234
298.9404827747
298.9606668415
299.0054599852
298.960611632
298.9411732077
298.982532425
298.9410503236
305.0437461786
305.072191779
305.0434332858
305.0565629211
305.0859127504
305.0566824091
305.0427845218
305.0725237514
305.0427863182
312.1387097838
312.1553935699
312.1386186349
312.1441683756
312.1609097887
312.1440902821
312.1389476842
312.1554344381
312.1389553439

SCALARS	sig_11	float	1
LOOKUP_TABLE	default
14.784639522
24.6903664209
15.6529619473
22.2691387292
30.9974588559
21.8544157804
15.1449776204
23.507889476
15.2152514759
-7.1130486144
-2.9692856551
-7.1753252881
-3.8216296078
0.4565515956
-3.7974554359
-7.3564956532
-3.0941647139
-7.3693426524
-16.4036367207
-16.1032302764
-16.3854409511
-16.4001473843
-16.0717673083
-16.4061427086
-16.3596485983
-16.0886440774
-16.3532275068

SCALARS	sig_22	float	1
LOOKUP_TABLE	default
9.4268874404
18.6484324977
10.1068449607
17.5303533658
25.0467034861
17.5240413931
11.0523429897
17.1617796773
11.0999886909
-6.0945876763
-3.2587182476
-6.1455841569
-2.6887718066
0.3207218527
-2.6869946665
-6.2387521681
-3.1732865523
-6.2408808187
-11.8918170431
-11.6563428935
-11.8791383658
-11.9907641376
-11.7465827452
-11.985383125
-11.8376919697
-11.6896604769
-11.8386263772

SCALARS	sig_33	float	1
LOOKUP_TABLE	default
24.2852033954
48.6044438626
24.7290809675
42.2125030646
65.7414134466
42.0587942037
24.9642015335
47.9192780846
24.968921825
-9.5440992953
2.424437319
-9.5946889059
-1.0232714628
11.1280340381
-1.0209234243
-9.6255283243
2.4697580804
-9.6370111547
-47.0740078846
-45.7912868661
-47.0980091445
-47.3418344145
-45.9142359557
-47.3264510211
-47.0834857144
-45.7748477324
-47.0638433966

SCALARS vonMises	float	1
LOOKUP_TABLE	default
64.2099233367
48.206450722
63.7588742771
52.0697358418
34.3204562406
52.298616589
63.6460437329
49.2642771766
63.7036002441
44.2629625172
40.4259434229
44.1783236136
42.1602565113
39.3353478538
42.2002440709
44.1551170633
40.5799388393
44.163046908
47.7024379673
47.652632972
47.7933545318
47.8696651623
47.7657493774
47.835453148
47.8545049628
47.5903181278
47.8473867839
