# vtk DataFile Version 2.0
Results
ASCII
DATASET UNSTRUCTURED_GRID
POINTS         27           float
0.0	0.0	0.0	
50.0	0.0	0.0	
100.0	0.0	0.0	
0.0	40.0	0.0	
50.0	40.0	0.0	
100.0	40.0	0.0	
0.0	80.0	0.0	
50.0	80.0	0.0	
100.0	80.0	0.0	
0.0	0.0	70.0	
50.0	0.0	70.0	
100.0	0.0	70.0	
0.0	40.0	70.0	
50.0	40.0	70.0	
100.0	40.0	70.0	
0.0	80.0	70.0	
50.0	80.0	70.0	
100.0	80.0	70.0	
0.0	0.0	140.0	
50.0	0.0	140.0	
100.0	0.0	140.0	
0.0	40.0	140.0	
50.0	40.0	140.0	
100.0	40.0	140.0	
0.0	80.0	140.0	
50.0	80.0	140.0	
100.0	80.0	140.0	

CELLS	8	72
 8	0	1	4	3	9	10	13	12	
 8	1	2	5	4	10	11	14	13	
 8	4	5	8	7	13	14	17	16	
 8	3	4	7	6	12	13	16	15	
 8	9	10	13	12	18	19	22	21	
 8	10	11	14	13	19	20	23	22	
 8	13	14	17	16	22	23	26	25	
 8	12	13	16	15	21	22	25	24	

CELL_TYPES	8
 12
 12
 12
 12
 12
 12
 12
 12

POINT_DATA	27
VECTORS	u 	float 
0.0	0.0	0.0
-0.0046036277	0.0	0.0
-0.0089939904	0.0	0.0
0.0	0.0013116955	0.0
-0.0047023493	0.0012768003	0.0
-0.0095407315	0.001611275	0.0
0.0	0.0039849587	0.0
-0.0048994479	0.0014346572	0.0
-0.0099675225	0.0044303191	0.0
0.0103552189	0.0190535312	-0.0297470909
-0.0045747007	0.0233753788	-0.0051987568
-0.0195661533	0.0194587391	-0.0297718804
0.0103070727	0.0011957462	-0.0145160663
-0.0047260534	0.001307155	0.0095954265
-0.0197327517	0.0015480664	-0.0145881815
0.0101757061	-0.0169804618	-0.0296289473
-0.004865985	-0.0204456656	-0.0050845049
-0.0198740025	-0.0166313856	-0.0296837542
-0.1446018035	-0.1234587795	0.0180445635
-0.0045493705	-0.1193118855	0.0805916892
0.1355396985	-0.1231208837	0.017976181
-0.1441228938	0.0010451381	0.0669587085
-0.0046827996	0.0012673377	0.1294340577
0.134744417	0.0014051624	0.0669197984
-0.1449411683	0.1257004011	0.0181256538
-0.0048225941	0.1216956256	0.0807331844
0.1352831193	0.1260499655	0.0180712812

VECTORS	v 	float 
0.0	0.0	0.0
-0.0002913587	0.0	0.0
-0.0005749249	0.0	0.0
0.0	-0.0003466965	0.0
-0.0002882453	-0.0003525571	0.0
-0.0005819603	-0.000350747	0.0
0.0	-0.0006972746	0.0
-0.0002917718	-0.0007017786	0.0
-0.0005741395	-0.0007055809	0.0
-0.0007978343	-0.0008448921	0.0001104004
-0.0002904734	-0.0009022966	7.90002e-05
0.0002148224	-0.0008475354	0.0001112867
-0.0007951377	-0.0003498254	0.0001081362
-0.0002904544	-0.0003499606	9.49372e-05
0.0002158616	-0.0003521222	0.0001103998
-0.000796444	0.0001461572	0.0001101881
-0.0002881095	0.000200996	7.87878e-05
0.0002177147	0.0001441725	0.0001109321
0.0004381539	0.0003984451	0.0004562891
-0.0002919388	0.000287117	-9.1306e-06
-0.0010217138	0.0003959797	0.0004584627
0.0004135092	-0.0003487438	4.94394e-05
-0.0002907784	-0.0003504826	-0.0004019552
-0.0009952926	-0.0003511487	4.99141e-05
0.0004403717	-0.0010964458	0.0004558374
-0.0002901712	-0.0009872588	-9.3467e-06
-0.0010201648	-0.0010987168	0.0004579338

VECTORS	a 	float 
0.0	0.0	0.0
-0.8956098289	0.0	0.0
-1.7906842968	0.0	0.0
0.0	-0.7169210511	0.0
-0.8941523332	-0.7159554388	0.0
-1.7887400286	-0.7170346405	0.0
0.0	-1.4332195696	0.0
-0.896105829	-1.4323155514	0.0
-1.7917417235	-1.433433672	0.0
-0.0022258641	-0.0029888899	3.0805265599
-0.8947602429	-0.0018751351	3.0821712032
-1.7874727007	-0.0027638688	3.080606743
-0.0013661704	-0.7165001267	3.0807738825
-0.8952154012	-0.7166310132	3.0823836865
-1.7888976526	-0.7162802685	3.0807859825
-0.0023451173	-1.4301837116	3.0806157194
-0.8948645069	-1.4312634071	3.0824489145
-1.7875356821	-1.4299753447	3.0806846201
0.0038069076	0.003026455	6.1588648241
-0.895035588	0.0040897489	6.1620672725
-1.793855725	0.0031900519	6.1590967699
0.0058987153	-0.7167938536	6.1602061985
-0.8949644545	-0.7166291442	6.1629172258
-1.7958586085	-0.7166092358	6.1600517188
0.0035998536	-1.4365915673	6.1590934088
-0.8951983415	-1.4373651722	6.162159958
-1.7939904857	-1.4363804543	6.1593118178

SCALARS	theta	float 1
LOOKUP_TABLE	default
301.3011622614
301.0927457727
301.2881032892
301.2071978831
301.004150924
301.2076617844
301.2949090643
301.1039374153
301.2938473894
295.4044676303
295.2680011546
295.4055094613
295.3953744943
295.2555399745
295.3945637731
295.4057117158
295.2695117326
295.4062041712
329.1140543208
329.0457956973
329.1144447678
329.1992981051
329.1316076757
329.1998726683
329.1149537973
329.0439924593
329.11440206

SCALARS	sig_11	float	1
LOOKUP_TABLE	default
-73.9993261943
-49.1103144385
-72.8053108403
-58.6359863993
-35.814355467
-58.6999075618
-73.3039337874
-51.8986524723
-73.7476637512
58.4833086549
84.0238627148
58.4100446426
79.4393891683
105.0995633808
79.4412242794
57.9830898209
83.7383557878
57.994952088
-136.6414083642
-106.8145776048
-136.6389206708
-110.246670792
-80.3389982024
-110.2419516391
-136.5475629974
-106.760900408
-136.5593281467

SCALARS	sig_22	float	1
LOOKUP_TABLE	default
-65.8514665524
-43.195511658
-64.2931902429
-49.1618072085
-30.066431487
-48.5203761944
-62.4641069308
-46.4626807124
-62.2187424561
45.8120933506
63.6732879694
45.7759945007
67.3979686156
85.499960725
67.4246808027
45.5119111178
63.8341153994
45.5603595577
-108.6812279334
-87.4723382366
-108.6943175579
-80.894084142
-59.6558145007
-80.893894421
-108.5706343083
-87.5266931995
-108.6028095782

SCALARS	sig_33	float	1
LOOKUP_TABLE	default
-96.528925774
-43.534001928
-95.673152022
-63.3720631814
-12.480889123
-63.324754737
-95.022317909
-45.202731448
-95.2070744241
93.3058213088
154.4305605547
93.2160946053
142.6620308799
203.8249220066
142.6276853174
93.161962568
154.5070634662
93.1233142842
-310.9608564471
-237.8866354587
-311.0257908413
-244.9215086267
-171.5985468677
-244.8800177724
-310.9542977349
-237.8409840402
-310.9451781507

SCALARS vonMises	float	1
LOOKUP_TABLE	default
80.4924650817
74.4350402932
81.3255281534
58.6531433938
49.7903849281
58.7005014603
82.7073380527
73.3816856788
82.5709315263
215.0535721075
183.2793809955
215.4983813426
177.0159178434
136.225482681
177.0081352708
215.870889678
182.3449353546
215.7664727444
232.2889725154
205.2716506581
232.4073520257
215.9848200779
190.6713819586
215.9745541045
232.584060716
205.1227900414
232.5263598258
