# vtk DataFile Version 2.0
Results
ASCII
DATASET UNSTRUCTURED_GRID
POINTS         27           float
0.0	0.0	0.0	
50.0	0.0	0.0	
100.0	0.0	0.0	
0.0	40.0	0.0	
50.0	40.0	0.0	
100.0	40.0	0.0	
0.0	80.0	0.0	
50.0	80.0	0.0	
100.0	80.0	0.0	
0.0	0.0	70.0	
50.0	0.0	70.0	
100.0	0.0	70.0	
0.0	40.0	70.0	
50.0	40.0	70.0	
100.0	40.0	70.0	
0.0	80.0	70.0	
50.0	80.0	70.0	
100.0	80.0	70.0	
0.0	0.0	140.0	
50.0	0.0	140.0	
100.0	0.0	140.0	
0.0	40.0	140.0	
50.0	40.0	140.0	
100.0	40.0	140.0	
0.0	80.0	140.0	
50.0	80.0	140.0	
100.0	80.0	140.0	

CELLS	8	72
 8	0	1	4	3	9	10	13	12	
 8	1	2	5	4	10	11	14	13	
 8	4	5	8	7	13	14	17	16	
 8	3	4	7	6	12	13	16	15	
 8	9	10	13	12	18	19	22	21	
 8	10	11	14	13	19	20	23	22	
 8	13	14	17	16	22	23	26	25	
 8	12	13	16	15	21	22	25	24	

CELL_TYPES	8
 12
 12
 12
 12
 12
 12
 12
 12

POINT_DATA	27
VECTORS	u 	float 
0.0	0.0	0.0
-0.010727321	0.0	0.0
-0.0210374835	0.0	0.0
0.0	-0.0105789595	0.0
-0.0107365325	-0.0106087052	0.0
-0.0217715718	-0.0104307498	0.0
0.0	-0.0202918666	0.0
-0.0108726163	-0.0219430922	0.0
-0.0216195308	-0.0201289826	0.0
-0.0319853313	-0.0280506646	-0.0064305323
-0.0106850499	-0.0268202988	0.0099615098
0.0105151431	-0.0278378988	-0.0064221396
-0.0319304311	-0.0106387145	0.0050277087
-0.0107769754	-0.0105913149	0.0215078583
0.0104497247	-0.010460349	0.005010002
-0.0320549937	0.0065717809	-0.0063672563
-0.0108345232	0.005832684	0.0100101656
0.0103521928	0.0067511545	-0.0063863101
-0.0851582761	-0.0724065369	0.0578276651
-0.0106954134	-0.0725996796	0.0774977912
0.0638148391	-0.0722388803	0.0578043981
-0.0853318186	-0.0107179021	0.071038005
-0.0107552265	-0.0106000351	0.0910017246
0.0637871373	-0.0105334623	0.071035521
-0.0853397236	0.0510657301	0.0578548157
-0.0108329068	0.0513087974	0.0775703303
0.063688653	0.0512456754	0.0578435517

VECTORS	v 	float 
0.0	0.0	0.0
7.47532e-05	0.0	0.0
0.0001527761	0.0	0.0
0.0	4.89711e-05	0.0
8.08695e-05	5.4115e-05	0.0
0.0001588788	4.87049e-05	0.0
0.0	0.0001012136	0.0
7.28931e-05	0.0001058538	0.0
0.0001481293	0.0001009415	0.0
3.40914e-05	1.5533e-06	9.22273e-05
7.84808e-05	1.00083e-05	7.40092e-05
0.0001218819	2.7998e-06	9.25615e-05
4.24295e-05	5.13461e-05	7.84748e-05
7.6467e-05	5.06365e-05	5.91636e-05
0.0001115536	5.24676e-05	7.82775e-05
3.3644e-05	0.0001002119	9.2656e-05
7.78049e-05	9.20746e-05	7.54648e-05
0.0001213121	0.0001011216	9.29227e-05
0.0002336156	0.0001943072	6.75171e-05
7.74046e-05	0.0002042705	1.62837e-05
-7.84887e-05	0.0001952373	6.83722e-05
0.0002506691	4.97568e-05	2.41011e-05
7.76574e-05	5.06809e-05	-2.99834e-05
-9.57954e-05	5.08575e-05	2.33839e-05
0.0002322705	-9.46666e-05	6.87603e-05
7.64751e-05	-0.0001031264	1.67587e-05
-7.92046e-05	-9.33519e-05	6.9538e-05

VECTORS	a 	float 
0.0	0.0	0.0
-0.8951723977	0.0	0.0
-1.7882644423	0.0	0.0
0.0	-0.7199263724	0.0
-0.888655027	-0.7129395233	0.0
-1.7790696888	-0.7198064513	0.0
0.0	-1.4364352014	0.0
-0.8968135902	-1.4284335393	0.0
-1.7924366621	-1.4361952705	0.0
0.002025819	-0.0052224517	3.0749342366
-0.8911427105	0.0015787383	3.0838069694
-1.7849768128	-0.0039895857	3.0752923601
0.0063873103	-0.7163502425	3.0785975763
-0.8932113246	-0.7173889046	3.0854438277
-1.7921288778	-0.7152570313	3.0782625735
0.0015182656	-1.4283979062	3.0754437769
-0.8918610502	-1.4355409655	3.0848250257
-1.7856223646	-1.4274455599	3.0756996026
0.0054777009	0.0029521331	6.1580380161
-0.8922754285	0.0129961026	6.1801272052
-1.7898297422	0.0037982009	6.1587214799
0.0196468478	-0.7179768144	6.1708725226
-0.8919555264	-0.7169339224	6.1897018924
-1.8038215218	-0.717000832	6.1701955707
0.0043852015	-1.4387055939	6.1591118042
-0.8930458323	-1.4471091048	6.1804530154
-1.7904413353	-1.4376022424	6.1597280155

SCALARS	theta	float 1
LOOKUP_TABLE	default
297.5016453416
297.5526194378
297.5045973563
297.5227427628
297.5684175292
297.5230122216
297.5060132851
297.5477187606
297.505994793
304.4182922312
304.4776351127
304.41783071
304.4463546058
304.5067030176
304.4463680317
304.4173404112
304.4782823552
304.417330365
314.68668552
314.7677259995
314.6866291399
314.7255736972
314.8066773127
314.7254896733
314.6870508038
314.7677467673
314.6870040367

SCALARS	sig_11	float	1
LOOKUP_TABLE	default
13.7158135442
26.6187346128
14.8198924752
23.3787179815
34.7708760099
22.8634834178
14.1789163171
25.0820010349
14.2527257676
-4.7698302787
0.9099364524
-4.8470903795
-0.0984979681
5.7505876919
-0.0680941654
-5.084012048
0.7475685045
-5.0993357486
-26.0807255132
-25.1748878185
-26.0585264152
-25.2907454397
-24.3469264652
-25.2979553239
-26.0235368674
-25.1552742644
-26.0157737744

SCALARS	sig_22	float	1
LOOKUP_TABLE	default
7.7610952449
19.7763608937
8.6438353445
18.233856186
28.047758797
18.2387837528
9.8539526958
17.8534751454
9.9195366386
-4.3616595643
-0.4389454176
-4.424183713
0.5152012856
4.6588140704
0.5185790193
-4.5484976825
-0.3309322033
-4.5496918932
-19.4050569361
-18.7059238452
-19.3901539468
-18.6147392943
-17.9021573752
-18.6081940516
-19.3356218493
-18.7486253443
-19.3375758726

SCALARS	sig_33	float	1
LOOKUP_TABLE	default
23.8024520471
55.3405108436
24.3771897557
46.8483282373
77.3479981555
46.6557769256
24.6813990504
54.4465478786
24.6806204018
-5.8026524884
11.2207148767
-5.8652507776
6.7187735955
23.9688716442
6.7215978805
-5.9077103735
11.2771383935
-5.9228376131
-72.3467112278
-67.7023749817
-72.3781422665
-69.5752767471
-64.7429543339
-69.555544961
-72.3571770051
-67.6809713201
-72.3330271844

SCALARS vonMises	float	1
LOOKUP_TABLE	default
72.3488447334
54.4414956672
71.7855772081
59.5523515241
41.0309499327
59.8363642802
71.665226424
55.8122640559
71.7449146847
58.030680713
53.6141985017
57.951241078
55.5412005177
52.5491334889
55.5759057598
57.9287771223
53.7229879058
57.9386219405
69.1375075985
67.9502809157
69.2523567015
68.588523101
67.3681861758
68.5470701311
69.3319098461
67.8686990789
69.3215659283
