# vtk DataFile Version 2.0
Results
ASCII
DATASET UNSTRUCTURED_GRID
POINTS         27           float
0.0	0.0	0.0	
50.0	0.0	0.0	
100.0	0.0	0.0	
0.0	40.0	0.0	
50.0	40.0	0.0	
100.0	40.0	0.0	
0.0	80.0	0.0	
50.0	80.0	0.0	
100.0	80.0	0.0	
0.0	0.0	70.0	
50.0	0.0	70.0	
100.0	0.0	70.0	
0.0	40.0	70.0	
50.0	40.0	70.0	
100.0	40.0	70.0	
0.0	80.0	70.0	
50.0	80.0	70.0	
100.0	80.0	70.0	
0.0	0.0	140.0	
50.0	0.0	140.0	
100.0	0.0	140.0	
0.0	40.0	140.0	
50.0	40.0	140.0	
100.0	40.0	140.0	
0.0	80.0	140.0	
50.0	80.0	140.0	
100.0	80.0	140.0	

CELLS	8	72
 8	0	1	4	3	9	10	13	12	
 8	1	2	5	4	10	11	14	13	
 8	4	5	8	7	13	14	17	16	
 8	3	4	7	6	12	13	16	15	
 8	9	10	13	12	18	19	22	21	
 8	10	11	14	13	19	20	23	22	
 8	13	14	17	16	22	23	26	25	
 8	12	13	16	15	21	22	25	24	

CELL_TYPES	8
 12
 12
 12
 12
 12
 12
 12
 12

POINT_DATA	27
VECTORS	u 	float 
0.0	0.0	0.0
-0.0135840777	0.0	0.0
-0.026723552	0.0	0.0
0.0	-0.0125833514	0.0
-0.0135984169	-0.0126160247	0.0
-0.0275137318	-0.0124166927	0.0
0.0	-0.0242064074	0.0
-0.0137478569	-0.0260355918	0.0
-0.027370201	-0.0240181068	0.0
-0.0319901873	-0.0273447947	-0.0117433193
-0.0135390455	-0.0259290281	0.0065579699
0.0048045373	-0.0271059735	-0.0117354891
-0.0319125799	-0.0126509554	0.0009289319
-0.0136411092	-0.0125967738	0.0193112104
0.0047077856	-0.01245059	0.0009078765
-0.0320706514	0.0018198337	-0.0116716793
-0.013706905	0.0009522479	0.0066140991
0.0046226275	0.0020209435	-0.0116935401
-0.0965111673	-0.0819609165	0.0536511039
-0.0135490549	-0.0820945891	0.0779675459
0.0694643023	-0.0817723976	0.0536241052
-0.0966283582	-0.0127403918	0.0703930357
-0.013616888	-0.0126083523	0.0950200708
0.0693583302	-0.0125332637	0.0703889316
-0.0967144452	0.0565854278	0.053683889
-0.0137036114	0.056776926	0.0780501236
0.0693222146	0.0567874692	0.0536699845

VECTORS	v 	float 
0.0	0.0	0.0
5.57617e-05	0.0	0.0
0.0001152096	0.0	0.0
0.0	2.72441e-05	0.0
6.28097e-05	3.28203e-05	0.0
0.0001224216	2.69344e-05	0.0
0.0	5.78832e-05	0.0
5.39062e-05	6.31596e-05	0.0
0.0001104745	5.74838e-05	0.0
-2.01978e-05	-5.50234e-05	0.0001005526
5.99903e-05	-4.65304e-05	8.13003e-05
0.0001391054	-5.38315e-05	0.0001009014
-1.1045e-05	2.98419e-05	8.73948e-05
5.77898e-05	2.90077e-05	6.74574e-05
0.000127761	3.0908e-05	8.72347e-05
-2.05735e-05	0.0001137458	0.000100975
5.93629e-05	0.0001053797	8.27699e-05
0.0001385772	0.0001146031	0.0001012387
0.0002652055	0.0002201704	9.78775e-05
5.87182e-05	0.0002309085	1.45977e-05
-0.000147417	0.0002209635	9.87402e-05
0.0002843793	2.81964e-05	2.64985e-05
5.91168e-05	2.91123e-05	-5.91901e-05
-0.0001666299	2.91618e-05	2.58192e-05
0.000263976	-0.000163637	9.91108e-05
5.79166e-05	-0.000172911	1.50798e-05
-0.0001479976	-0.0001624559	9.98903e-05

VECTORS	a 	float 
0.0	0.0	0.0
-0.8961031149	0.0	0.0
-1.7907867332	0.0	0.0
0.0	-0.7189652421	0.0
-0.8909392669	-0.7132896988	0.0
-1.7830801633	-0.7188670547	0.0
0.0	-1.435399697	0.0
-0.8973667256	-1.4284551093	0.0
-1.7939436024	-1.4352047066	0.0
-0.0004631813	-0.003967474	3.0770724908
-0.8929149295	0.0012836696	3.0833823184
-1.7858335564	-0.0030289158	3.0773605381
0.0027712234	-0.7160317463	3.0794020031
-0.8945316592	-0.7168777409	3.083958019
-1.791351804	-0.7151962909	3.0791242106
-0.0008665935	-1.4287780426	3.0774577645
-0.8934609604	-1.4344418881	3.0841478091
-1.7863220637	-1.4280458976	3.0776689831
0.0047732188	0.0027284623	6.1569859166
-0.8938010966	0.0113085899	6.175866978
-1.7922454404	0.0033808404	6.1575209245
0.016103102	-0.7173004606	6.1682852818
-0.8935450148	-0.7164889635	6.1844266515
-1.8033720383	-0.7165542459	6.1677488889
0.003949683	-1.4371865448	6.1578005614
-0.8943918063	-1.4444591152	6.1761042364
-1.7927189625	-1.4363481394	6.1582837444

SCALARS	theta	float 1
LOOKUP_TABLE	default
297.0642403467
297.1067044574
297.0665059487
297.0782668
297.1157001514
297.0790391565
297.0687187233
297.1020097732
297.0686069831
303.7226394237
303.809855992
303.7221069533
303.766843521
303.8549376477
303.766685755
303.7218250484
303.8107052373
303.7218236418
316.3942296901
316.5438459405
316.3942476709
316.47351286
316.623246309
316.4734912346
316.3946264988
316.5438239927
316.394545417

SCALARS	sig_11	float	1
LOOKUP_TABLE	default
9.4200883289
23.9304420485
10.6263368896
20.1788927223
33.0248838344
19.6318856598
9.9302584304
22.2117530773
9.9916927336
-0.512522067
6.2420912281
-0.5950600419
5.16614909
12.1043443569
5.1988036162
-0.8622083603
6.0604323932
-0.8775238937
-34.52116739
-32.8528838208
-34.4983252847
-32.7737611933
-31.0617087102
-32.7813669843
-34.457092273
-32.8302024905
-34.4494978455

SCALARS	sig_22	float	1
LOOKUP_TABLE	default
3.8384152788
17.3557978556
4.8269551541
15.5030438302
26.5730347745
15.5271367629
6.161668577
15.2135614093
6.2414050857
-1.035221038
3.6624791774
-1.1009133379
4.920293641
9.8602009336
4.9254543997
-1.2436317609
3.7811239521
-1.2426542701
-26.109088659
-24.8429141838
-26.0945152125
-24.235278367
-22.9525068363
-24.228665878
-26.0319399444
-24.8898723491
-26.0353750605

SCALARS	sig_33	float	1
LOOKUP_TABLE	default
18.2829838842
53.6156577648
18.9223447302
43.853765964
78.0165277387
43.648020388
19.2615229784
52.6141546436
19.2541287678
0.6520829545
21.412122187
0.5850936518
16.2750440683
37.2774216048
16.2777804952
0.5353936988
21.4734469022
0.5185524003
-93.4295471382
-84.9003203333
-93.465700491
-86.9337765516
-78.194991374
-86.912157352
-93.4395144848
-84.8759428155
-93.4143429017

SCALARS vonMises	float	1
LOOKUP_TABLE	default
69.261908192
52.3902627103
68.6618459181
58.1734146784
42.3538343735
58.4735747102
68.5678455071
53.9276982815
68.6651955082
66.4772437446
62.4573206688
66.4390581289
64.0342639727
60.9714665863
64.0518874953
66.4308563316
62.4637689879
66.441595445
85.5246076285
82.8853216553
85.649504001
84.0354568916
81.4295699062
83.9927784425
85.7391129686
82.7931921405
85.7260084725
