# vtk DataFile Version 2.0
Results
ASCII
DATASET UNSTRUCTURED_GRID
POINTS         27           float
0.0	0.0	0.0	
50.0	0.0	0.0	
100.0	0.0	0.0	
0.0	40.0	0.0	
50.0	40.0	0.0	
100.0	40.0	0.0	
0.0	80.0	0.0	
50.0	80.0	0.0	
100.0	80.0	0.0	
0.0	0.0	70.0	
50.0	0.0	70.0	
100.0	0.0	70.0	
0.0	40.0	70.0	
50.0	40.0	70.0	
100.0	40.0	70.0	
0.0	80.0	70.0	
50.0	80.0	70.0	
100.0	80.0	70.0	
0.0	0.0	140.0	
50.0	0.0	140.0	
100.0	0.0	140.0	
0.0	40.0	140.0	
50.0	40.0	140.0	
100.0	40.0	140.0	
0.0	80.0	140.0	
50.0	80.0	140.0	
100.0	80.0	140.0	

CELLS	8	72
 8	0	1	4	3	9	10	13	12	
 8	1	2	5	4	10	11	14	13	
 8	4	5	8	7	13	14	17	16	
 8	3	4	7	6	12	13	16	15	
 8	9	10	13	12	18	19	22	21	
 8	10	11	14	13	19	20	23	22	
 8	13	14	17	16	22	23	26	25	
 8	12	13	16	15	21	22	25	24	

CELL_TYPES	8
 12
 12
 12
 12
 12
 12
 12
 12

POINT_DATA	27
VECTORS	u 	float 
0.0	0.0	0.0
-0.007265268	0.0	0.0
-0.0142722012	0.0	0.0
0.0	-0.001891087	0.0
-0.00735283	-0.0019194717	0.0
-0.0148725928	-0.0016129179	0.0
0.0	-0.0024726348	0.0
-0.0075373138	-0.0049205579	0.0
-0.015191453	-0.0020726491	0.0
0.002938124	0.0112403934	-0.0284943086
-0.0072346113	0.0149612021	-0.0044262454
-0.0174788978	0.0116182854	-0.028512603
0.0028551601	-0.0019947697	-0.0133609889
-0.0073773175	-0.0018943151	0.0103978849
-0.0175746821	-0.0016686946	-0.0134226235
0.0027756067	-0.0155350095	-0.0283821646
-0.0075053092	-0.0184480941	-0.0043247823
-0.0177648352	-0.0152113537	-0.0284311436
-0.1403918513	-0.1196325999	0.0225158558
-0.0072161594	-0.1165020521	0.0803188411
0.1259996956	-0.1193207543	0.0224549942
-0.1401431632	-0.0021355422	0.0672899301
-0.0073385951	-0.0019279006	0.1251317818
0.1254493229	-0.0018011051	0.0672579489
-0.1407081824	0.1155066795	0.0225871097
-0.007469072	0.1125024088	0.0804512148
0.12576204	0.1158316627	0.0225405066

VECTORS	v 	float 
0.0	0.0	0.0
-0.0002410484	0.0	0.0
-0.0004735458	0.0	0.0
0.0	-0.0002911267	0.0
-0.0002312701	-0.0002918416	0.0
-0.0004689241	-0.000294633	0.0
0.0	-0.0005839681	0.0
-0.0002425821	-0.000581779	0.0
-0.0004757757	-0.0005910878	0.0
-0.0006853092	-0.0007296594	0.0001121651
-0.0002361706	-0.0007729901	8.26836e-05
0.0002106458	-0.0007311506	0.0001131706
-0.0006772374	-0.0002919221	0.0001081466
-0.0002380158	-0.0002923699	9.15366e-05
0.0002031898	-0.0002931336	0.0001098532
-0.0006844302	0.0001462099	0.000112129
-0.0002345781	0.000187387	8.33564e-05
0.0002126972	0.0001452072	0.00011298
0.0004129334	0.0003728333	0.0004180926
-0.0002387083	0.0002902812	-2.0962e-06
-0.0008899263	0.0003711174	0.0004204925
0.0004103002	-0.0002918931	4.41883e-05
-0.0002372041	-0.0002928798	-0.0003676774
-0.0008851159	-0.000293523	4.40777e-05
0.0004143008	-0.0009570476	0.0004183124
-0.0002375463	-0.0008753722	-1.9769e-06
-0.0008888247	-0.0009584976	0.0004206045

VECTORS	a 	float 
0.0	0.0	0.0
-0.895571328	0.0	0.0
-1.7905088863	0.0	0.0
0.0	-0.7169053508	0.0
-0.8939535137	-0.7159723756	0.0
-1.7884199285	-0.7170578929	0.0
0.0	-1.4331057844	0.0
-0.8961656641	-1.4323929183	0.0
-1.7917535503	-1.4333947056	0.0
-0.0021211303	-0.0031076687	3.0801786975
-0.894636552	-0.001724386	3.0822526431
-1.7873628997	-0.0028553942	3.0802690744
-0.0010021943	-0.716529352	3.0805917858
-0.895147964	-0.716650262	3.0826766252
-1.7890995778	-0.7162780752	3.0806239498
-0.0022598104	-1.4301464282	3.0802842055
-0.8947491511	-1.4314414572	3.0825764891
-1.7874247113	-1.4299034548	3.080360368
0.0040102359	0.0031740987	6.1588501478
-0.894949234	0.0043989837	6.1628777091
-1.7938855694	0.0033592881	6.1591263155
0.0064239916	-0.7168481795	6.1608420084
-0.8948725809	-0.7166717384	6.1643391442
-1.796199712	-0.7166404621	6.1606680916
0.0037800927	-1.4368441732	6.1591117199
-0.8951338366	-1.4377591456	6.1629922027
-1.7940405815	-1.4366074905	6.159370757

SCALARS	theta	float 1
LOOKUP_TABLE	default
300.3756735316
300.2263216643
300.3650286584
300.3006130392
300.1479283149
300.3031027505
300.3779601333
300.2281972511
300.375157118
296.5463500234
296.521326296
296.5468428079
296.6220051215
296.5948664321
296.6207759438
296.545775486
296.524178433
296.5465842299
327.3747212234
327.5080543352
327.375189556
327.6245227523
327.7585725897
327.6253321771
327.3762058407
327.5059923313
327.3754874824

SCALARS	sig_11	float	1
LOOKUP_TABLE	default
-60.1860186196
-37.2732236717
-58.9758090879
-45.7482347316
-24.7548681762
-45.9258723126
-59.5928333219
-39.8108068181
-59.9219010497
51.0240251459
72.259447188
50.9517852499
68.0854004146
89.4673578121
68.095639621
50.5512034397
71.9873027549
50.5571158223
-119.0329141954
-96.3322610306
-119.0274070922
-99.4132848923
-76.6374281471
-99.4134206155
-118.9483588318
-96.2811940859
-118.9547969824

SCALARS	sig_22	float	1
LOOKUP_TABLE	default
-54.3224313041
-33.3587762718
-52.8554937675
-38.65584155
-21.0052558496
-38.1549368888
-51.1630326031
-36.3886251477
-50.9272712796
40.0571862495
54.8116725809
40.0184550113
57.5818038172
72.592465187
57.6066572722
39.775360597
54.9617596785
39.8146368344
-94.0269392964
-78.056633702
-94.0350004148
-73.4121848839
-57.4145258319
-73.4133148216
-93.9252481091
-78.107358867
-93.9499152831

SCALARS	sig_33	float	1
LOOKUP_TABLE	default
-77.5262360626
-27.0638313199
-76.700739218
-45.4336249893
3.1889292824
-45.4595498037
-76.1796197744
-28.5505881258
-76.3075299
80.6814994903
134.8577094845
80.6011193481
123.680340357
177.9599785872
123.6563053016
80.5440345681
134.9278524396
80.5097351777
-278.1334557687
-217.0316609085
-278.1952925211
-223.8509363023
-162.4955761959
-223.8173866638
-278.137005964
-216.9832361372
-278.1222092367

SCALARS vonMises	float	1
LOOKUP_TABLE	default
56.6410755066
56.2412465489
57.4914492425
41.8171820497
43.5179713842
41.8592013448
58.9783879752
55.4858201864
58.8930666968
189.002905376
163.2671292789
189.4462340343
157.8097818997
124.9823030712
157.7840294738
189.795551418
162.4094251708
189.7079097096
212.089785028
189.3674616242
212.2120078886
198.5576879529
177.3441898004
198.5427065987
212.3714428931
189.2275579518
212.3216343101
