# vtk DataFile Version 2.0
Results
ASCII
DATASET UNSTRUCTURED_GRID
POINTS         27           float
0.0	0.0	0.0	
50.0	0.0	0.0	
100.0	0.0	0.0	
0.0	40.0	0.0	
50.0	40.0	0.0	
100.0	40.0	0.0	
0.0	80.0	0.0	
50.0	80.0	0.0	
100.0	80.0	0.0	
0.0	0.0	70.0	
50.0	0.0	70.0	
100.0	0.0	70.0	
0.0	40.0	70.0	
50.0	40.0	70.0	
100.0	40.0	70.0	
0.0	80.0	70.0	
50.0	80.0	70.0	
100.0	80.0	70.0	
0.0	0.0	140.0	
50.0	0.0	140.0	
100.0	0.0	140.0	
0.0	40.0	140.0	
50.0	40.0	140.0	
100.0	40.0	140.0	
0.0	80.0	140.0	
50.0	80.0	140.0	
100.0	80.0	140.0	

CELLS	8	72
 8	0	1	4	3	9	10	13	12	
 8	1	2	5	4	10	11	14	13	
 8	4	5	8	7	13	14	17	16	
 8	3	4	7	6	12	13	16	15	
 8	9	10	13	12	18	19	22	21	
 8	10	11	14	13	19	20	23	22	
 8	13	14	17	16	22	23	26	25	
 8	12	13	16	15	21	22	25	24	

CELL_TYPES	8
 12
 12
 12
 12
 12
 12
 12
 12

POINT_DATA	27
VECTORS	u 	float 
0.0	0.0	0.0
-0.0121937847	0.0	0.0
-0.0239555823	0.0	0.0
0.0	-0.0116605394	0.0
-0.0122049839	-0.0116917554	0.0
-0.0247186403	-0.0115038327	0.0
0.0	-0.0224102323	0.0
-0.0123476095	-0.0241462544	0.0
-0.0245681439	-0.0222360279	0.0
-0.0322836321	-0.0280328716	-0.0089184989
-0.0121499959	-0.0267204859	0.0083730438
0.0078796437	-0.0278080194	-0.0089102393
-0.0322182847	-0.0117239463	0.0031215556
-0.0122467302	-0.0116734802	0.0204994537
0.0078004335	-0.0115354008	0.0031024066
-0.032358135	0.0043732345	-0.0088513339
-0.0123079842	0.0035788581	0.0084251267
0.0077078635	0.0045626942	-0.0088716406
-0.090397599	-0.0768202897	0.0560326069
-0.0121603436	-0.0769950121	0.0777074494
0.0661262666	-0.0766429897	0.0560076735
-0.0905490902	-0.0118079182	0.0707491934
-0.0122238095	-0.0116834501	0.0927271722
0.0660661034	-0.0116129721	0.0707460711
-0.0905892198	0.0533043616	0.0560622861
-0.0123057249	0.0535324949	0.0777846477
0.0659927639	0.0534945324	0.0560498914

VECTORS	v 	float 
0.0	0.0	0.0
6.80137e-05	0.0	0.0
0.0001394393	0.0	0.0
0.0	4.09726e-05	0.0
7.43844e-05	4.62598e-05	0.0
0.000145793	4.06916e-05	0.0
0.0	8.52548e-05	0.0
6.61582e-05	9.011e-05	0.0
0.000134766	8.49384e-05	0.0
1.29925e-05	-2.05626e-05	9.63824e-05
7.18647e-05	-1.203e-05	7.74938e-05
0.0001297187	-1.93403e-05	9.67313e-05
2.16991e-05	4.34157e-05	8.27994e-05
6.98001e-05	4.26594e-05	6.29574e-05
0.0001189827	4.45127e-05	8.26048e-05
1.25747e-05	0.0001064559	9.68086e-05
7.12097e-05	9.81659e-05	7.89524e-05
0.0001291667	0.0001073417	9.70831e-05
0.0002481445	0.0002061864	7.99245e-05
7.07257e-05	0.000216568	1.54673e-05
-0.0001063639	0.000207057	8.07931e-05
0.0002660159	4.18082e-05	2.52542e-05
7.10308e-05	4.27258e-05	-4.19045e-05
-0.000124411	4.28502e-05	2.4539e-05
0.0002468508	-0.0001224391	8.11642e-05
6.9852e-05	-0.0001313367	1.59418e-05
-0.0001070211	-0.000121182	8.1953e-05

VECTORS	a 	float 
0.0	0.0	0.0
-0.8956175629	0.0	0.0
-1.7894708516	0.0	0.0
0.0	-0.7194667282	0.0
-0.8897474899	-0.7131069794	0.0
-1.7809877309	-0.7193571995	0.0
0.0	-1.4359400297	0.0
-0.8970781629	-1.4284438157	0.0
-1.7931574371	-1.4357215927	0.0
0.0008353907	-0.0046222462	3.0759569214
-0.8919903104	0.0014376076	3.0836039055
-1.7853865486	-0.0035301429	3.0762815357
0.0046578586	-0.7161979151	3.0789822778
-0.8938428086	-0.7171444389	3.0847331748
-1.7917572609	-0.7152279849	3.0786746312
0.0003776432	-1.4285796961	3.0764070316
-0.892626237	-1.4350153209	3.0845011514
-1.7859569864	-1.4277326701	3.0766415278
0.0051408851	0.0028452356	6.1575348113
-0.8930051138	0.0121890445	6.1780896598
-1.7909852335	0.0035986661	6.1581472667
0.0179519508	-0.7176533281	6.1696351022
-0.8927157343	-0.7167211107	6.1871789651
-1.8036065159	-0.7167872404	6.1690253798
0.0041770337	-1.4379791567	6.1584846437
-0.8936895727	-1.4458417134	6.1783731145
-1.7915307948	-1.4370025256	6.1590372257

SCALARS	theta	float 1
LOOKUP_TABLE	default
297.2575600702
297.3056662338
297.2602694673
297.2760420245
297.3189331929
297.2765079017
297.2619893722
297.3008362485
297.2619543609
304.1368664406
304.2081804583
304.1363714239
304.1714849598
304.2437633602
304.1714315351
304.1359684789
304.2089164049
304.1359598028
315.4420889685
315.5515896145
315.4420594446
315.4970647908
315.6066454443
315.4970016807
315.4424728363
315.5515952896
315.4424100581

SCALARS	sig_11	float	1
LOOKUP_TABLE	default
12.1610226879
25.8111987027
13.3156896222
22.34343834
34.4081185933
21.8105907842
12.6471632497
24.1887775354
12.7169842362
-3.1408739882
3.0038891166
-3.2209207019
1.9668501381
8.2881053808
1.9984462114
-3.4718436855
2.8324327351
-3.4873318948
-29.6217812513
-28.4222759854
-29.5990961268
-28.4510413681
-27.210882034
-28.4584637524
-29.5613805984
-28.401269098
-29.5535831077

SCALARS	sig_22	float	1
LOOKUP_TABLE	default
6.2965024123
19.0100487411
7.228744474
17.3344217075
27.7296844485
17.3465358136
8.4990247733
16.9833198407
8.5704928686
-3.0958728494
1.1617555406
-3.1602365127
2.2488448292
6.737769002
2.2529373121
-3.2928999985
1.274862416
-3.2932938046
-22.2084244019
-21.2885203286
-22.1934869935
-20.9857139313
-20.0509354974
-20.9790650095
-22.1353548371
-21.3332889699
-22.1378814628

SCALARS	sig_33	float	1
LOOKUP_TABLE	default
21.8620718564
55.1762062618
22.4675792667
46.111974254
78.3262584122
45.9122988049
22.7884132725
54.2315517063
22.7849085869
-3.3230156873
15.3145899722
-3.3878798676
10.5299495798
29.4025331097
10.5327879827
-3.4335983308
15.3733830871
-3.4495449859
-81.2739283547
-75.0752201434
-81.3074603412
-77.0168228832
-70.6198563104
-76.9961580638
-81.2842907862
-75.0524622887
-81.2595005736

SCALARS vonMises	float	1
LOOKUP_TABLE	default
71.7941531206
54.1167457157
71.210425831
59.5456972854
41.9074619057
59.8389169489
71.0976482964
55.564584079
71.1846788214
61.7794950262
57.4491287003
61.7129038857
59.2819742343
56.2883542632
59.3104862465
61.6944789276
57.5201412643
61.7048011376
76.1917751283
74.4300038432
76.3116683562
75.2707376301
73.4985979361
75.2283669904
76.3958566969
74.3434981665
76.3843836888
