# vtk DataFile Version 2.0
Results
ASCII
DATASET UNSTRUCTURED_GRID
POINTS         27           float
0.0	0.0	0.0	
50.0	0.0	0.0	
100.0	0.0	0.0	
0.0	40.0	0.0	
50.0	40.0	0.0	
100.0	40.0	0.0	
0.0	80.0	0.0	
50.0	80.0	0.0	
100.0	80.0	0.0	
0.0	0.0	70.0	
50.0	0.0	70.0	
100.0	0.0	70.0	
0.0	40.0	70.0	
50.0	40.0	70.0	
100.0	40.0	70.0	
0.0	80.0	70.0	
50.0	80.0	70.0	
100.0	80.0	70.0	
0.0	0.0	140.0	
50.0	0.0	140.0	
100.0	0.0	140.0	
0.0	40.0	140.0	
50.0	40.0	140.0	
100.0	40.0	140.0	
0.0	80.0	140.0	
50.0	80.0	140.0	
100.0	80.0	140.0	

CELLS	8	72
 8	0	1	4	3	9	10	13	12	
 8	1	2	5	4	10	11	14	13	
 8	4	5	8	7	13	14	17	16	
 8	3	4	7	6	12	13	16	15	
 8	9	10	13	12	18	19	22	21	
 8	10	11	14	13	19	20	23	22	
 8	13	14	17	16	22	23	26	25	
 8	12	13	16	15	21	22	25	24	

CELL_TYPES	8
 12
 12
 12
 12
 12
 12
 12
 12

POINT_DATA	27
VECTORS	u 	float 
0.0	0.0	0.0
0.004441651	0.0	0.0
0.0089244461	0.0	0.0
0.0	0.0083900483	0.0
0.004362219	0.0083408036	0.0
0.0086966273	0.0085939451	0.0
0.0	0.0176218029	0.0
0.004230729	0.0160037417	0.0
0.0082788421	0.0179533845	0.0
0.0207660294	0.0261163222	-0.0218232073
0.0044516792	0.0296971605	-0.0079110464
-0.0118793926	0.0263919824	-0.0218505083
0.02086365	0.0082916386	-0.0135599628
0.0043519682	0.0083765786	-0.0001324287
-0.012158482	0.0085368702	-0.013620125
0.0206351808	-0.0097321708	-0.0217478342
0.0042517462	-0.0127456474	-0.0078187033
-0.0120917979	-0.0094906373	-0.0217896922
-0.0844312526	-0.0725810687	-0.0069024661
0.0044800718	-0.0682244499	0.0355235588
0.0934056769	-0.0723438433	-0.0069548677
-0.0836233612	0.0081902988	0.0271289178
0.004385094	0.0083394607	0.0693155846
0.0923918265	0.0084383223	0.0270938929
-0.084664031	0.0890550979	-0.0068358321
0.0042896889	0.0848082607	0.0356194191
0.0932281029	0.0892955478	-0.0068812774

VECTORS	v 	float 
0.0	0.0	0.0
0.0021940638	0.0	0.0
0.0043872515	0.0	0.0
0.0	0.0018075394	0.0
0.0021825189	0.0017949852	0.0
0.0043663277	0.001810059	0.0
0.0	0.0036231916	0.0
0.0021936115	0.0035828859	0.0
0.0043841212	0.0036266846	0.0
0.0001173665	0.0002058866	-0.0080010095
0.0021878113	0.0002383072	-0.0077667302
0.0042585913	0.0002078382	-0.0080017786
0.0001130397	0.0018000887	-0.0078527196
0.0021896205	0.0018029423	-0.0076195936
0.004265411	0.0018017633	-0.0078526491
0.0001164128	0.0033925849	-0.0080003777
0.0021861503	0.003369373	-0.0077674026
0.0042566984	0.0033945072	-0.0080014112
-0.0014666898	-0.0012476889	-0.0152082136
0.0021896893	-0.0012238929	-0.0146065217
0.0058461216	-0.0012460106	-0.0152098449
-0.0014812516	0.001801341	-0.014725927
0.002187971	0.001801772	-0.0141205779
0.0058575336	0.0018030358	-0.0147251277
-0.0014679183	0.0048516094	-0.0152090409
0.0021885343	0.0048263128	-0.0146055886
0.0058448121	0.0048529833	-0.0152105418

VECTORS	a 	float 
0.0	0.0	0.0
0.4705580995	0.0	0.0
0.9409215843	0.0	0.0
0.0	0.3767972669	0.0
0.4700857485	0.376428107	0.0
0.9403325582	0.3768186237	0.0
0.0	0.7533712118	0.0
0.4706933126	0.7530157014	0.0
0.9412382715	0.7534103961	0.0
0.0025574206	0.0028454456	-1.6177781349
0.4702747725	0.0025060742	-1.6182043263
0.9380524926	0.0027689546	-1.6178018795
0.0022843148	0.3766227515	-1.6178381222
0.4704220668	0.3766771072	-1.6182553815
0.9384999885	0.3765529912	-1.6178324191
0.0025898544	0.7504611424	-1.617801109
0.4703132426	0.7507981258	-1.6182957947
0.9380808207	0.7504002396	-1.61782245
-0.0044480913	-0.0036914125	-3.2334196662
0.4703618811	-0.0040044436	-3.2335395093
0.9451579075	-0.0037398903	-3.2334829545
-0.0051962567	0.3767233708	-3.232878739
0.4703358564	0.3766660296	-3.2328730831
0.9458871676	0.3766651546	-3.2328307479
-0.0043769313	0.7571297676	-3.2334919221
0.4704113809	0.7573469393	-3.2335680809
0.9451951792	0.7570603365	-3.2335532666

SCALARS	theta	float 1
LOOKUP_TABLE	default
302.7072956713
302.4503723135
302.6937226338
302.6057265414
302.3843230523
302.6017736752
302.6775593433
302.4839872432
302.6813487626
295.3591927129
295.0142264006
295.3614501543
295.119917547
294.7701986824
295.1204672486
295.3661244312
295.01001029
295.3655183253
319.0503844377
318.5205221077
319.0502163046
318.6446209296
318.1146501421
318.6442646885
319.0482884493
318.5213018135
319.0485089324

SCALARS	sig_11	float	1
LOOKUP_TABLE	default
-68.1116559791
-50.252195882
-67.4365831399
-57.5241474961
-41.2987065696
-57.3579500014
-67.4116884814
-52.3944804942
-67.8784463498
45.2179739442
68.3419084594
45.1698088411
65.5451494635
88.6748941926
65.5295967406
44.8755991155
68.1658890453
44.8937469964
-110.0320344763
-78.4063725415
-110.0339405321
-80.0867724819
-48.3893176907
-80.0732287524
-109.9501074667
-78.3787907478
-109.9678789848

SCALARS	sig_22	float	1
LOOKUP_TABLE	default
-59.1208497997
-43.075222486
-58.0523307283
-47.6081075104
-34.1856077471
-46.9884465638
-56.7034887525
-45.4342789067
-56.5575708627
35.0856511499
51.7068450318
35.0653891141
56.0283485201
72.7416836377
56.0447797492
34.8735839084
51.8245270618
34.9181798687
-89.2118190408
-65.9574157302
-89.2269473081
-57.8209299884
-34.5290140786
-57.8160056334
-89.1245569872
-66.0021950767
-89.1580496072

SCALARS	sig_33	float	1
LOOKUP_TABLE	default
-103.2881443968
-69.5374728716
-102.7213110361
-83.0123905755
-51.1190843659
-82.8498708896
-102.0267584893
-70.9219997668
-102.2491839014
61.4961965958
108.8246278865
61.4222206309
101.828448186
149.0647484946
101.7870762559
61.3938209463
108.8886398895
61.3641274296
-245.6009806708
-181.2824877833
-245.6393747594
-184.701132884
-120.20288303
-184.6601322991
-245.5633483292
-181.2745782313
-245.5707468023

SCALARS vonMises	float	1
LOOKUP_TABLE	default
94.7175567796
79.7700494039
95.1811730182
70.0538459124
44.2931148436
70.1501746994
95.9400818572
78.8244434832
95.8032939455
166.6547138808
136.3692925821
166.9086164915
131.7784787095
90.7632185756
131.8150858256
167.1552213015
135.7135181573
167.0695676842
169.4822583199
145.4263427096
169.5396435927
153.9751371376
130.6715745031
153.9741679143
169.6665534736
145.3288502097
169.6208328628
