# vtk DataFile Version 2.0
Results
ASCII
DATASET UNSTRUCTURED_GRID
POINTS         27           float
0.0	0.0	0.0	
50.0	0.0	0.0	
100.0	0.0	0.0	
0.0	40.0	0.0	
50.0	40.0	0.0	
100.0	40.0	0.0	
0.0	80.0	0.0	
50.0	80.0	0.0	
100.0	80.0	0.0	
0.0	0.0	70.0	
50.0	0.0	70.0	
100.0	0.0	70.0	
0.0	40.0	70.0	
50.0	40.0	70.0	
100.0	40.0	70.0	
0.0	80.0	70.0	
50.0	80.0	70.0	
100.0	80.0	70.0	
0.0	0.0	140.0	
50.0	0.0	140.0	
100.0	0.0	140.0	
0.0	40.0	140.0	
50.0	40.0	140.0	
100.0	40.0	140.0	
0.0	80.0	140.0	
50.0	80.0	140.0	
100.0	80.0	140.0	

CELLS	8	72
 8	0	1	4	3	9	10	13	12	
 8	1	2	5	4	10	11	14	13	
 8	4	5	8	7	13	14	17	16	
 8	3	4	7	6	12	13	16	15	
 8	9	10	13	12	18	19	22	21	
 8	10	11	14	13	19	20	23	22	
 8	13	14	17	16	22	23	26	25	
 8	12	13	16	15	21	22	25	24	

CELL_TYPES	8
 12
 12
 12
 12
 12
 12
 12
 12

POINT_DATA	27
VECTORS	u 	float 
0.0	0.0	0.0
0.0037217863	0.0	0.0
0.0075078226	0.0	0.0
0.0	0.0083031717	0.0
0.0036275736	0.0082492121	0.0
0.0072136409	0.0085382945	0.0
0.0	0.017590696	0.0
0.003482093	0.0157022325	0.0
0.0067643724	0.0179674805	0.0
0.0214685183	0.0277707077	-0.0250960583
0.0037322723	0.0317668867	-0.008504699
-0.0140273325	0.0280875643	-0.0251257048
0.0215512372	0.0081927095	-0.0151632223
0.003618261	0.0082891512	0.0009049802
-0.0143109643	0.0084733833	-0.0152302097
0.0213196858	-0.0116174009	-0.0250082923
0.0035026624	-0.0149574986	-0.0084022596
-0.0142710196	-0.0113406397	-0.0250558644
-0.1002293024	-0.0860391284	-0.004773277
0.0037635702	-0.0813229188	0.0443422871
0.1077747431	-0.0857680867	-0.0048329949
-0.0993995668	0.008076742	0.0344704909
0.0036547832	0.0082483472	0.0833437452
0.1067061554	0.0083610701	0.0344321987
-0.100496128	0.1023018233	-0.0046994181
0.0035458577	0.0977088171	0.0444524938
0.1075712989	0.1025774669	-0.004750618

VECTORS	v 	float 
0.0	0.0	0.0
-0.0023248046	0.0	0.0
-0.004644332	0.0	0.0
0.0	-0.0018225829	0.0
-0.0023135134	-0.0018104435	0.0
-0.0046309245	-0.0018197457	0.0
0.0	-0.0036276498	0.0
-0.0023298384	-0.0036349533	0.0
-0.0046592151	-0.0036235491	0.0
1.39079e-05	9.75364e-05	0.0074106252
-0.0023171154	0.0001387296	0.0076590147
-0.0046497549	0.0001029307	0.007410986
1.3466e-05	-0.0018170968	0.0075613056
-0.002322004	-0.001817969	0.007804002
-0.0046561998	-0.001812403	0.0075601861
1.15895e-05	-0.0037359531	0.0074122644
-0.0023207149	-0.0037706388	0.007661527
-0.0046533609	-0.0037314814	0.0074122858
-0.0014032857	-0.0011969331	0.0156019974
-0.0023189049	-0.0011572417	0.01620841
-0.0032338854	-0.0011926012	0.0156024646
-0.0013870236	-0.001821034	0.0160603814
-0.0023194668	-0.0018174436	0.0166623896
-0.0032524104	-0.0018162897	0.0160589969
-0.001408056	-0.0024435074	0.0156040839
-0.0023226146	-0.0024793215	0.0162101455
-0.0032372161	-0.0024386641	0.0156047015

VECTORS	a 	float 
0.0	0.0	0.0
-0.5691976992	0.0	0.0
-1.1381433924	0.0	0.0
0.0	-0.4557988377	0.0
-0.568459223	-0.4550629401	0.0
-1.1371305076	-0.4558032954	0.0
0.0	-0.9112499727	0.0
-0.5693792901	-0.9103826348	0.0
-1.1385927639	-0.9112556532	0.0
-0.0029218364	-0.0032180746	1.9566981325
-0.5687458254	-0.0027403394	1.9572698944
-1.1346489365	-0.0030931062	1.9567342968
-0.0026345113	-0.4554258875	1.9567668611
-0.5689744833	-0.4555364553	1.9572434892
-1.1352325245	-0.4553152765	1.9567391537
-0.0029729931	-0.9077283279	1.9567356751
-0.568814698	-0.9082502733	1.9573970912
-1.1347068585	-0.9076346733	1.9567677777
0.0048454536	0.0039635026	3.9106935099
-0.5688761575	0.0045753619	3.9113783515
-1.1425765676	0.0040419285	3.9107759229
0.0059763338	-0.4555960821	3.9103474705
-0.5688355884	-0.4554940129	3.9107869888
-1.1436781242	-0.4555023651	3.9102719563
0.0047315303	-0.9151424482	3.9108070943
-0.5689532854	-0.9155825922	3.911410649
-1.1426334115	-0.9150318423	3.9108870886

SCALARS	theta	float 1
LOOKUP_TABLE	default
302.7825240013
302.5102561784
302.7679486103
302.6728293951
302.4343930649
302.669145804
302.7543164463
302.542833028
302.7576753783
294.8977139996
294.5561029175
294.8999259506
294.675666287
294.3294057624
294.6760659904
294.9042888144
294.5524853723
294.9037992921
322.1433392517
321.6384256445
322.1432944762
321.7793971765
321.2743852864
321.779137945
322.141531339
321.6388653059
322.141672253

SCALARS	sig_11	float	1
LOOKUP_TABLE	default
-75.365784368
-54.9825804448
-74.5618577651
-63.2134095077
-44.6676247026
-63.0645527062
-74.6133945255
-57.3979356661
-75.1160777522
51.480852985
76.9512520813
51.4254532199
73.6119553436
99.0993958247
73.5975289581
51.0866116311
76.7452461413
51.1054863812
-123.6808290422
-89.5172715238
-123.6822653074
-91.668726597
-57.4307954842
-91.6556477689
-123.5893595869
-89.4841161427
-123.6075624618

SCALARS	sig_22	float	1
LOOKUP_TABLE	default
-65.6116498662
-47.2529633343
-64.3813482205
-52.4008474713
-37.0276584311
-51.7258626749
-62.8547155055
-49.940052242
-62.6784288407
40.0279008809
58.2402729648
40.0041786446
62.8437837645
81.1720044293
62.8631216283
39.7849209985
58.3745933505
39.8339331538
-99.9653394572
-74.9859783857
-99.9812282628
-66.3590860367
-41.3447576611
-66.3547703583
-99.8668660482
-75.0362092649
-99.9025737137

SCALARS	sig_33	float	1
LOOKUP_TABLE	default
-112.6997119191
-73.346316456
-112.0426807039
-88.9168321193
-51.6234386544
-88.7584618096
-111.3005118454
-74.8863320906
-111.5336305775
71.3299334464
124.8003898327
71.2481228051
116.4747184461
169.8525964461
116.4305506591
71.2129560605
124.8722751457
71.1796095911
-277.6831547735
-206.273555234
-277.7282264166
-210.5647508744
-138.9629852332
-210.5208825982
-277.6457790547
-206.2603617694
-277.650934813

SCALARS vonMises	float	1
LOOKUP_TABLE	default
102.129956528
86.5854531646
102.6769253018
75.243404731
48.4764809462
75.3499269598
103.5670982065
85.5160931771
103.4069381786
188.8324733688
155.3115939968
189.131417314
150.0823686233
105.0702065349
150.121458067
189.4154187342
154.5604948015
189.3149361935
193.9089921608
167.1907638951
193.9801360893
176.8280136766
151.083936484
176.8253732865
194.1238345876
167.0783626358
194.0725897381
