# vtk DataFile Version 2.0
Results
ASCII
DATASET UNSTRUCTURED_GRID
POINTS         27           float
0.0	0.0	0.0	
50.0	0.0	0.0	
100.0	0.0	0.0	
0.0	40.0	0.0	
50.0	40.0	0.0	
100.0	40.0	0.0	
0.0	80.0	0.0	
50.0	80.0	0.0	
100.0	80.0	0.0	
0.0	0.0	70.0	
50.0	0.0	70.0	
100.0	0.0	70.0	
0.0	40.0	70.0	
50.0	40.0	70.0	
100.0	40.0	70.0	
0.0	80.0	70.0	
50.0	80.0	70.0	
100.0	80.0	70.0	
0.0	0.0	140.0	
50.0	0.0	140.0	
100.0	0.0	140.0	
0.0	40.0	140.0	
50.0	40.0	140.0	
100.0	40.0	140.0	
0.0	80.0	140.0	
50.0	80.0	140.0	
100.0	80.0	140.0	

CELLS	8	72
 8	0	1	4	3	9	10	13	12	
 8	1	2	5	4	10	11	14	13	
 8	4	5	8	7	13	14	17	16	
 8	3	4	7	6	12	13	16	15	
 8	9	10	13	12	18	19	22	21	
 8	10	11	14	13	19	20	23	22	
 8	13	14	17	16	22	23	26	25	
 8	12	13	16	15	21	22	25	24	

CELL_TYPES	8
 12
 12
 12
 12
 12
 12
 12
 12

POINT_DATA	27
VECTORS	u 	float 
0.0	0.0	0.0
0.0034113077	0.0	0.0
0.0068274073	0.0	0.0
0.0	0.0044683642	0.0
0.0033820621	0.0044317101	0.0
0.0067561046	0.0045325413	0.0
0.0	0.0091816889	0.0
0.0033402083	0.008672058	0.0
0.0066187349	0.0092926433	0.0
0.0088143176	0.0103485329	-0.0089047111
0.0034114866	0.0116322728	-0.0050856489
-0.0019941548	0.0104372469	-0.0089158306
0.0089801928	0.0044228005	-0.0066619395
0.0033800073	0.004455058	-0.0030424301
-0.0022199116	0.0045033548	-0.0066831627
0.0087710988	-0.0015605235	-0.0088831698
0.0033469189	-0.0026644213	-0.0050496815
-0.0020636993	-0.0014817968	-0.0088976249
-0.0233706404	-0.0201790786	-0.0091655634
0.0034229286	-0.0184521891	0.0036469617
0.0302200429	-0.0201009383	-0.0091835917
-0.0228450382	0.0043922454	0.0012007197
0.0033916226	0.0044381494	0.0138932111
0.0296273262	0.0044725845	0.0011881457
-0.0234466123	0.0289892383	-0.0091401041
0.003360534	0.0273016513	0.0036774459
0.0301628998	0.0290672587	-0.0091565364

VECTORS	v 	float 
0.0	0.0	0.0
-0.0021150222	0.0	0.0
-0.0042310823	0.0	0.0
0.0	-0.0015816364	0.0
-0.0021130821	-0.0015737063	0.0
-0.0042254776	-0.0015765617	0.0
0.0	-0.0031457622	0.0
-0.0021190828	-0.0031615705	0.0
-0.0042441145	-0.0031370188	0.0
0.0005494836	0.0006571978	0.00735741
-0.0021123946	0.0007329742	0.0076142466
-0.0047741606	0.0006633847	0.0073569954
0.0005458592	-0.0015783933	0.0075068629
-0.0021153653	-0.0015780726	0.007749174
-0.00477683	-0.0015729323	0.0075047281
0.0005465509	-0.0038182153	0.0073591327
-0.0021169812	-0.0038847824	0.0076160589
-0.0047791408	-0.003812968	0.0073584362
-0.0016768555	-0.0014472417	0.0153651899
-0.002112126	-0.0013421751	0.0162338699
-0.0025471834	-0.0014419123	0.0153640106
-0.0016584346	-0.0015816442	0.0160708158
-0.0021138937	-0.0015777391	0.0169305708
-0.0025694025	-0.0015760908	0.0160695886
-0.0016821133	-0.0017141153	0.0153670566
-0.002116359	-0.0018153687	0.0162354758
-0.0025510513	-0.0017087	0.0153659959

VECTORS	a 	float 
0.0	0.0	0.0
-0.1212434372	0.0	0.0
-0.2424739681	0.0	0.0
0.0	-0.0972978767	0.0
-0.121211271	-0.0972564147	0.0
-0.2424322886	-0.0973084612	0.0
0.0	-0.1946138562	0.0
-0.1212416489	-0.1944985674	0.0
-0.2424642701	-0.1946326431	0.0
-0.0016279833	-0.0018694967	0.4166876231
-0.1212266396	-0.002053185	0.4161683698
-0.2408292712	-0.0018772063	0.4166913447
-0.0016544865	-0.0972725844	0.4163841092
-0.12123124	-0.0972835112	0.4158912051
-0.2408038244	-0.0972798032	0.4163866378
-0.0016236232	-0.1926726008	0.416687611
-0.1212198963	-0.1925175919	0.4161676344
-0.2408211248	-0.192680204	0.4166913355
0.0036421347	0.0031303034	0.8320703116
-0.1212338934	0.0028642013	0.8301937617
-0.24610946	0.003121903	0.8320780019
0.003567451	-0.0972767415	0.8305373203
-0.1212277445	-0.0972783143	0.8286655607
-0.2460240811	-0.0972846176	0.8305354221
0.003648423	-0.1976864258	0.8320732856
-0.1212278736	-0.1974182237	0.8301894189
-0.24610332	-0.197693121	0.8320803162

SCALARS	theta	float 1
LOOKUP_TABLE	default
301.2185065608
301.0975872407
301.2125521741
301.1719206787
301.0817573879
301.1693972189
301.1954306942
301.1216173937
301.1985380837
298.3982928215
298.2030222175
298.3996772111
298.2068283913
298.0081480544
298.2074230419
298.4043913479
298.198156777
298.4036713179
305.8515606344
305.5149020453
305.8512864315
305.503618067
305.1653294091
305.5031142499
305.8487699991
305.5169786664
305.8492502102

SCALARS	sig_11	float	1
LOOKUP_TABLE	default
-24.7898044658
-18.4961806085
-24.562219138
-20.911492231
-15.3714640248
-20.8332559218
-24.4160568712
-19.3409886355
-24.5985882407
13.6913907019
22.8225830658
13.6715628761
22.5861604847
31.7030227808
22.5777807162
13.5651097651
22.7792887776
13.5736854884
-39.0383280065
-25.6761061841
-39.0379430456
-25.1752475635
-11.766846116
-25.1673431293
-38.9954338423
-25.6778581407
-39.0046541745

SCALARS	sig_22	float	1
LOOKUP_TABLE	default
-21.4320687716
-15.7901457393
-21.0643335378
-17.2267178739
-12.6268654591
-16.9952175445
-20.5349183648
-16.6640165353
-20.500695367
10.3077689265
17.1103170697
10.2977369987
19.5708667541
26.3850910294
19.5740552745
10.2255713524
17.1602067845
10.242847736
-32.3777943911
-22.2086358985
-32.3828412247
-17.7421177628
-7.5348874904
-17.73712981
-32.3377435832
-22.232670711
-32.3526849887

SCALARS	sig_33	float	1
LOOKUP_TABLE	default
-45.7035719701
-35.0832281464
-45.5002333337
-39.1656097299
-29.400763182
-39.0914888567
-45.1448420071
-35.6762850549
-45.2447183813
10.8993810425
27.3699845225
10.8682967042
26.1038271719
42.5217716213
26.0852496679
10.8526348772
27.4046707242
10.8437861419
-89.9079078964
-66.1745790274
-89.9171537357
-65.905468724
-42.0822823162
-65.8869303225
-89.8739010709
-66.1899416228
-89.8811475562

SCALARS vonMises	float	1
LOOKUP_TABLE	default
38.0985454992
31.8066887726
38.2396220099
29.3457987738
19.1203260304
29.3898645472
38.459703193
31.4901318776
38.4129890225
54.9058215099
43.4671440214
54.9838569848
42.1507842346
25.4825737922
42.1683157893
55.0542461602
43.2544760684
55.0260162069
57.443867716
48.4374850142
57.4591312145
51.0908632319
41.8489301952
51.0882237163
57.4976317223
48.4093336002
57.4839595747
