# vtk DataFile Version 2.0
Results
ASCII
DATASET UNSTRUCTURED_GRID
POINTS         27           float
0.0	0.0	0.0	
50.0	0.0	0.0	
100.0	0.0	0.0	
0.0	40.0	0.0	
50.0	40.0	0.0	
100.0	40.0	0.0	
0.0	80.0	0.0	
50.0	80.0	0.0	
100.0	80.0	0.0	
0.0	0.0	70.0	
50.0	0.0	70.0	
100.0	0.0	70.0	
0.0	40.0	70.0	
50.0	40.0	70.0	
100.0	40.0	70.0	
0.0	80.0	70.0	
50.0	80.0	70.0	
100.0	80.0	70.0	
0.0	0.0	140.0	
50.0	0.0	140.0	
100.0	0.0	140.0	
0.0	40.0	140.0	
50.0	40.0	140.0	
100.0	40.0	140.0	
0.0	80.0	140.0	
50.0	80.0	140.0	
100.0	80.0	140.0	

CELLS	8	72
 8	0	1	4	3	9	10	13	12	
 8	1	2	5	4	10	11	14	13	
 8	4	5	8	7	13	14	17	16	
 8	3	4	7	6	12	13	16	15	
 8	9	10	13	12	18	19	22	21	
 8	10	11	14	13	19	20	23	22	
 8	13	14	17	16	22	23	26	25	
 8	12	13	16	15	21	22	25	24	

CELL_TYPES	8
 12
 12
 12
 12
 12
 12
 12
 12

POINT_DATA	27
VECTORS	u 	float 
0.0	0.0	0.0
-0.0130386666	0.0	0.0
-0.0256374066	0.0	0.0
0.0	-0.0122393856	0.0
-0.0130515102	-0.0122714733	0.0
-0.026416956	-0.0120769749	0.0
0.0	-0.02353913	0.0
-0.0131982066	-0.0253294639	0.0
-0.0262697573	-0.0233569669	0.0
-0.0322067216	-0.0277327445	-0.0105530406
-0.0129940645	-0.0263622792	0.0073244068
0.0061124021	-0.0274998549	-0.0105449896
-0.0321342525	-0.0123052107	0.0018569473
-0.0130939066	-0.0122526329	0.0198181726
0.0060232299	-0.0121098727	0.0018367413
-0.0322846008	0.002903987	-0.0104832971
-0.0131577274	0.0020689989	0.0073788094
0.0059347845	0.0031001501	-0.0105044839
-0.093911131	-0.0797757581	0.0547049234
-0.0130042712	-0.0799300491	0.0778548004
0.0679530886	-0.0795920147	0.0546788198
-0.0940439702	-0.0123923391	0.0705471002
-0.0130702253	-0.0122635059	0.0940049456
0.0678675783	-0.0121903903	0.0705434531
-0.0941094738	0.0550941307	0.0547363655
-0.0131549225	0.0553043148	0.0779350984
0.067814666	0.0552911232	0.0547231295

VECTORS	v 	float 
0.0	0.0	0.0
6.16387e-05	0.0	0.0
0.0001268204	0.0	0.0
0.0	3.37181e-05	0.0
6.82668e-05	3.91405e-05	0.0
0.0001334518	3.34254e-05	0.0
0.0	7.07881e-05	0.0
5.97859e-05	7.58355e-05	0.0
0.0001221194	7.04347e-05	0.0
-4.8753e-06	-3.91368e-05	9.88149e-05
6.56276e-05	-3.05927e-05	7.96858e-05
0.0001350852	-3.79305e-05	9.91716e-05
4.1248e-06	3.6232e-05	8.55421e-05
6.35109e-05	3.5437e-05	6.55894e-05
0.0001240067	3.73122e-05	8.53551e-05
-5.2707e-06	0.0001106507	9.924e-05
6.49868e-05	0.0001022924	8.11477e-05
0.000134545	0.0001115205	9.95165e-05
0.0002579347	0.0002142012	8.96678e-05
6.44319e-05	0.0002248199	1.49075e-05
-0.0001287306	0.0002150294	9.05416e-05
0.0002765071	3.46067e-05	2.60373e-05
6.47803e-05	3.55225e-05	-5.12821e-05
-0.0001474174	3.5607e-05	2.53306e-05
0.0002566764	-0.0001448521	9.09055e-05
6.35979e-05	-0.0001539985	1.5383e-05
-0.0001293457	-0.0001436361	9.16975e-05

VECTORS	a 	float 
0.0	0.0	0.0
-0.8959008222	0.0	0.0
-1.7902384934	0.0	0.0
0.0	-0.7191742058	0.0
-0.8904426872	-0.7132135608	0.0
-1.7822083029	-0.7190712929	0.0
0.0	-1.4356248617	0.0
-0.8972465099	-1.4284503934	0.0
-1.7936160708	-1.4354201033	0.0
7.78808e-05	-0.0042402987	3.0766076949
-0.8925296765	0.0013478029	3.0834746595
-1.7856473019	-0.0032377652	3.0769109794
0.0035573089	-0.7161009844	3.079227104
-0.8942446473	-0.7169888688	3.0842809727
-1.7915207515	-0.7152094994	3.0789368718
-0.0003481713	-1.4286953959	3.0770199842
-0.8931131626	-1.4346808193	3.0842950441
-1.7861699454	-1.4279153854	3.0772409024
0.004926444	0.0027771376	6.1572146335
-0.8934694447	0.0116754471	6.1767930901
-1.7917204035	0.0034716201	6.1577819089
0.0168734362	-0.7174474879	6.168847686
-0.8931994878	-0.7165856926	6.1855734336
-1.8034697283	-0.7166513277	6.1682807412
0.004044447	-1.437516822	6.1580856015
-0.8940992156	-1.4450351991	6.1770495964
-1.7922239426	-1.4366208244	6.1585976987

SCALARS	theta	float 1
LOOKUP_TABLE	default
297.1333756245
297.17856934
297.1358530873
297.1494950365
297.1895704296
297.150126231
297.1378336542
297.1738121694
297.1377639425
303.9110591214
303.9912916347
303.9105423914
303.9509097599
304.0320619704
303.9507999407
303.9102068569
303.9920910581
303.9102013985
315.9791220829
316.1107890847
315.9791174565
316.0472703172
316.1790359112
316.0472286351
315.9795145782
316.11078038
315.979441249

SCALARS	sig_11	float	1
LOOKUP_TABLE	default
10.7186156286
24.864428978
11.9039890125
21.2364623506
33.7502551434
20.6945495571
11.2190026736
23.1861720405
11.2845421689
-1.7338438606
4.7507372796
-1.8154294149
3.6929224299
10.358252893
3.7251748458
-2.0756868709
4.5733625673
-2.0911268368
-32.3266148642
-30.8773795657
-32.3037804752
-30.8437175081
-29.3520337741
-30.851254201
-32.2640928348
-30.8554169993
-32.2563775631

SCALARS	sig_22	float	1
LOOKUP_TABLE	default
4.9911466952
18.1679279781
5.9559248555
16.3938976309
27.1771867037
16.4123627125
7.2640586693
16.0740394442
7.3400552397
-1.9947572967
2.508130699
-2.0600009138
3.6916222224
8.4322485996
3.6962921997
-2.1983954437
2.6244737162
-2.1980636491
-24.3595597024
-23.2543086506
-24.3447730652
-22.7837120701
-21.6625998368
-22.777060308
-24.284124419
-23.3003663369
-24.287138712

SCALARS	sig_33	float	1
LOOKUP_TABLE	default
19.993440498
54.4748719916
20.6186903274
45.0145175805
78.3556077345
44.8110252839
20.9502356969
53.4972158992
20.9445867968
-1.1928111876
18.6294850065
-1.2589655633
13.6464076523
33.7082392691
13.6492034057
-1.3069498319
18.6897614797
-1.3234146909
-88.0103585006
-80.5475494429
-88.0453714646
-82.5389793852
-74.8713158034
-82.5177466421
-88.0205309744
-80.5238674863
-87.9954710644

SCALARS vonMises	float	1
LOOKUP_TABLE	default
70.6061572342
53.3141584194
70.0118415059
58.9499988064
42.2439848163
59.2478143518
69.9082355465
54.813405873
70.0008933247
64.420065575
60.2388182391
64.3675209532
61.9471871349
58.92985545
61.9699541877
64.3539668214
60.2756481382
64.3645671136
81.3970154779
79.1611799636
81.5199313084
80.1689792295
77.9452360267
80.1263002837
81.6072115756
79.071420161
81.5948706184
