# vtk DataFile Version 2.0
Results
ASCII
DATASET UNSTRUCTURED_GRID
POINTS         27           float
0.0	0.0	0.0	
50.0	0.0	0.0	
100.0	0.0	0.0	
0.0	40.0	0.0	
50.0	40.0	0.0	
100.0	40.0	0.0	
0.0	80.0	0.0	
50.0	80.0	0.0	
100.0	80.0	0.0	
0.0	0.0	70.0	
50.0	0.0	70.0	
100.0	0.0	70.0	
0.0	40.0	70.0	
50.0	40.0	70.0	
100.0	40.0	70.0	
0.0	80.0	70.0	
50.0	80.0	70.0	
100.0	80.0	70.0	
0.0	0.0	140.0	
50.0	0.0	140.0	
100.0	0.0	140.0	
0.0	40.0	140.0	
50.0	40.0	140.0	
100.0	40.0	140.0	
0.0	80.0	140.0	
50.0	80.0	140.0	
100.0	80.0	140.0	

CELLS	8	72
 8	0	1	4	3	9	10	13	12	
 8	1	2	5	4	10	11	14	13	
 8	4	5	8	7	13	14	17	16	
 8	3	4	7	6	12	13	16	15	
 8	9	10	13	12	18	19	22	21	
 8	10	11	14	13	19	20	23	22	
 8	13	14	17	16	22	23	26	25	
 8	12	13	16	15	21	22	25	24	

CELL_TYPES	8
 12
 12
 12
 12
 12
 12
 12
 12

POINT_DATA	27
VECTORS	u 	float 
0.0	0.0	0.0
0.0027650041	0.0	0.0
0.0057973981	0.0	0.0
0.0	0.0006163815	0.0
0.0027623178	0.0005990418	0.0
0.005332931	0.0007067853	0.0
0.0	0.0017652274	0.0
0.002677122	0.0007504148	0.0
0.0054389418	0.0018611221	0.0
-0.0222469922	-0.0200383639	0.0108119699
0.0027924874	-0.0193082086	0.0208119036
0.0277685572	-0.0199088875	0.0108181869
-0.0222335865	0.000581468	0.0178882174
0.0027357779	0.000609561	0.0279537536
0.0277524171	0.0006900886	0.0178781674
-0.0222876273	0.0210770515	0.0108490932
0.0027014979	0.0206465409	0.0208392773
0.0276680396	0.0211865529	0.0108377448
-0.0508875074	-0.0433527865	0.0660632658
0.0027850869	-0.0435134544	0.0763188453
0.0564876252	-0.0432508932	0.0660498725
-0.0510598786	0.000534764	0.0726558257
0.0027490825	0.0006065985	0.0831018301
0.0565361274	0.0006471052	0.0726552851
-0.0509979098	0.0444805876	0.0660767251
0.0027014088	0.0446709839	0.0763606126
0.0564106888	0.0445904101	0.0660708635

VECTORS	v 	float 
0.0	0.0	0.0
7.87491e-05	0.0	0.0
0.0001603405	0.0	0.0
0.0	5.18182e-05	0.0
8.43159e-05	5.83265e-05	0.0
0.0001661456	5.21618e-05	0.0
0.0	0.0001082113	0.0
7.69281e-05	0.000113171	0.0
0.0001552421	0.0001089781	0.0
8.01303e-05	4.59032e-05	3.81497e-05
8.2368e-05	5.45646e-05	4.06334e-05
8.37422e-05	4.75964e-05	3.83944e-05
8.66728e-05	5.49868e-05	3.79348e-05
8.03275e-05	5.41987e-05	3.88141e-05
7.49101e-05	5.64716e-05	3.74636e-05
7.95457e-05	6.29218e-05	3.84932e-05
8.13219e-05	5.49559e-05	4.22833e-05
8.2673e-05	6.41713e-05	3.87407e-05
0.000160821	0.0001217175	1.72536e-05
8.14906e-05	0.0001304363	2.14283e-05
2.4714e-06	0.0001230474	1.78827e-05
0.0001766277	5.31699e-05	1.75152e-05
8.1535e-05	5.43531e-05	1.85443e-05
-1.39865e-05	5.46803e-05	1.66871e-05
0.0001590551	-1.51896e-05	1.85377e-05
8.02314e-05	-2.20467e-05	2.20269e-05
1.4693e-06	-1.3482e-05	1.91719e-05

VECTORS	a 	float 
0.0	0.0	0.0
-0.8910372625	0.0	0.0
-1.7770344877	0.0	0.0
0.0	-0.723380321	0.0
-0.8788685586	-0.7107957848	0.0
-1.7619913923	-0.7230729573	0.0
0.0	-1.4391755931	0.0
-0.8943271673	-1.42736455	0.0
-1.7857908075	-1.4385674459	0.0
0.0130055371	-0.0097301251	3.0635324367
-0.883448415	0.0047018709	3.0863399901
-1.7814452699	-0.0071044008	3.0641713597
0.022308556	-0.7170867042	3.0747905047
-0.8874596766	-0.7188975654	3.0944362435
-1.7956622157	-0.7147838045	3.0741646169
0.0120133879	-1.4264681876	3.0645559477
-0.8849991789	-1.4406496676	3.0885453239
-1.782870669	-1.4244875765	3.0649954707
0.0078054224	0.0032610683	6.1576194493
-0.8855758323	0.0202696435	6.1990690976
-1.778436473	0.0050909844	6.1588990141
0.0343532489	-0.7203011009	6.18056507
-0.8850561933	-0.7182081775	6.2166792267
-1.8051256039	-0.718175471	6.1792653821
0.005374293	-1.443391406	6.1598256183
-0.887254958	-1.4572842992	6.1998327066
-1.7797568765	-1.4409769691	6.1609895055

SCALARS	theta	float 1
LOOKUP_TABLE	default
300.208671652
300.2509505944
300.2112759853
300.2291591856
300.2673601451
300.2290238129
300.2117096181
300.2470269365
300.2115811596
305.2110912459
305.2289693072
305.2108490214
305.2191417638
305.2378062999
305.219275444
305.2102124229
305.2291748324
305.2102092178
310.5886293481
310.5899612765
310.5885679328
310.5869604129
310.5883334348
310.5869056726
310.588801453
310.5899669713
310.5888415292

SCALARS	sig_11	float	1
LOOKUP_TABLE	default
12.7099804937
20.5035956833
13.3973367789
18.6139314038
25.4778124395
18.2839296454
12.9956922058
19.5730911679
13.05368458
-6.4728086732
-3.2639318084
-6.5226288159
-3.9566064003
-0.6406639189
-3.9374740246
-6.6649038019
-3.3618594436
-6.6751667491
-11.9931457074
-11.8544162761
-11.9786521194
-12.1446907284
-11.9844462426
-12.1496188871
-11.9582792749
-11.8430894861
-11.9532673968

SCALARS	sig_22	float	1
LOOKUP_TABLE	default
8.295188135
15.5508675156
8.831135988
14.6834603411
20.5945585466
14.6768641505
9.5788689644
14.3794121536
9.6163684685
-5.4918804372
-3.3018965985
-5.5328052448
-2.899734023
-0.5719464608
-2.8985136351
-5.6053818175
-3.233644855
-5.607243383
-8.5941748229
-8.4826537901
-8.5839614663
-8.8562480005
-8.7385001622
-8.8519956284
-8.5511374206
-8.5089145198
-8.5518362962

SCALARS	sig_33	float	1
LOOKUP_TABLE	default
20.5989892708
39.7621716786
20.9486685369
34.7614707865
53.305722551
34.6393900621
21.13487936
39.2238399652
21.1401146251
-8.8059863525
0.3362377317
-8.8466586913
-2.3792773729
6.909510123
-2.377447176
-8.8702930136
0.3728713386
-8.8792038328
-34.865248609
-34.4302835793
-34.8842162024
-35.6859306064
-35.1372756106
-35.6738497492
-34.8727402857
-34.4174107988
-34.8571608119

SCALARS vonMises	float	1
LOOKUP_TABLE	default
52.6617316089
39.5277030733
52.3023079756
42.5395220175
27.7100617122
42.7232346717
52.2096805665
40.363134603
52.2536392749
34.767972297
31.7218426758
34.6964295468
33.1065155694
30.7501564336
33.1413263117
34.6766335176
31.8591888623
34.6827908412
36.1080556114
36.328087561
36.1802553803
36.4137274895
36.5883839273
36.3862419495
36.2279046318
36.2796197464
36.2227397264
