# vtk DataFile Version 2.0
Results
ASCII
DATASET UNSTRUCTURED_GRID
POINTS         27           float
0.0	0.0	0.0	
50.0	0.0	0.0	
100.0	0.0	0.0	
0.0	40.0	0.0	
50.0	40.0	0.0	
100.0	40.0	0.0	
0.0	80.0	0.0	
50.0	80.0	0.0	
100.0	80.0	0.0	
0.0	0.0	70.0	
50.0	0.0	70.0	
100.0	0.0	70.0	
0.0	40.0	70.0	
50.0	40.0	70.0	
100.0	40.0	70.0	
0.0	80.0	70.0	
50.0	80.0	70.0	
100.0	80.0	70.0	
0.0	0.0	140.0	
50.0	0.0	140.0	
100.0	0.0	140.0	
0.0	40.0	140.0	
50.0	40.0	140.0	
100.0	40.0	140.0	
0.0	80.0	140.0	
50.0	80.0	140.0	
100.0	80.0	140.0	

CELLS	8	72
 8	0	1	4	3	9	10	13	12	
 8	1	2	5	4	10	11	14	13	
 8	4	5	8	7	13	14	17	16	
 8	3	4	7	6	12	13	16	15	
 8	9	10	13	12	18	19	22	21	
 8	10	11	14	13	19	20	23	22	
 8	13	14	17	16	22	23	26	25	
 8	12	13	16	15	21	22	25	24	

CELL_TYPES	8
 12
 12
 12
 12
 12
 12
 12
 12

POINT_DATA	27
VECTORS	u 	float 
0.0	0.0	0.0
0.0031499181	0.0	0.0
0.0063045474	0.0	0.0
0.0	0.0040276006	0.0
0.0031252754	0.0039941294	0.0
0.0062428352	0.0040828136	0.0
0.0	0.008265164	0.0
0.0030882032	0.0078247367	0.0
0.0061238181	0.0083609375	0.0
0.0076890624	0.0090052589	-0.0081791322
0.0031503703	0.010119558	-0.0049110304
-0.0013908488	0.0090818951	-0.0081888859
0.0078454865	0.0039870173	-0.0062586545
0.0031230126	0.0040153083	-0.0031651341
-0.0015990127	0.0040567061	-0.0062769425
0.0076517223	-0.0010804393	-0.0081607443
0.0030946076	-0.0020395839	-0.0048794391
-0.0014509769	-0.0010123699	-0.0081733131
-0.0199941223	-0.0172642286	-0.0090256773
0.0031602029	-0.0157580422	0.0019802782
0.0263176239	-0.0171966528	-0.0090412783
-0.019516319	0.0039608396	-0.0001232986
0.0031332043	0.0040002533	0.0107763462
0.0257817769	0.004030245	-0.000134161
-0.0200598271	0.0252076575	-0.009003408
0.0031062478	0.02373575	0.0020066275
0.0262682979	0.0252750848	-0.009017663

VECTORS	v 	float 
0.0	0.0	0.0
-0.0021013003	0.0	0.0
-0.0042039239	0.0	0.0
0.0	-0.0015669122	0.0
-0.0021012363	-0.0015596204	0.0
-0.0042016199	-0.0015616254	0.0
0.0	-0.003116143	0.0
-0.0021054154	-0.0031334997	0.0
-0.004217185	-0.0031069537	0.0
0.0005792303	0.0006886497	0.0073524106
-0.0020997427	0.0007679841	0.0076121259
-0.0047785323	0.0006950209	0.0073520135
0.0005782358	-0.0015640772	0.0075052271
-0.0021023934	-0.0015635773	0.0077495219
-0.0047832986	-0.0015584498	0.0075029093
0.0005762069	-0.0038210677	0.0073541578
-0.0021044782	-0.003890749	0.0076140012
-0.004783695	-0.0038156788	0.0073534816
-0.0016911846	-0.001460108	0.0153501969
-0.002099146	-0.0013493382	0.0162353512
-0.0025069004	-0.0014545849	0.0153489815
-0.0016689537	-0.0015673079	0.0160713187
-0.0021011235	-0.0015633443	0.0169468832
-0.0025333545	-0.0015615651	0.0160699909
-0.0016966274	-0.0016725826	0.0153521692
-0.0021035282	-0.0017794269	0.0162369443
-0.0025108912	-0.0016669788	0.0153510703

VECTORS	a 	float 
0.0	0.0	0.0
-0.1033467772	0.0	0.0
-0.206680932	0.0	0.0
0.0	-0.0829762068	0.0
-0.1033148577	-0.0829397138	0.0
-0.2066391175	-0.0829873757	0.0
0.0	-0.1659716357	0.0
-0.1033452377	-0.1658640422	0.0
-0.2066709929	-0.165991584	0.0
-0.0016109103	-0.0018522835	0.3550624946
-0.1033303593	-0.0020350855	0.3545438122
-0.2050537201	-0.0018604602	0.3550661933
-0.0016376183	-0.0829538358	0.3547569495
-0.1033347309	-0.0829638974	0.3542659528
-0.2050278438	-0.0829613486	0.3547598719
-0.0016065256	-0.1640519905	0.3550622957
-0.10332325	-0.1638969079	0.3545430035
-0.2050451053	-0.1640597104	0.3550660409
0.0036193652	0.0031112524	0.7088313009
-0.1033376449	0.002845112	0.7069575732
-0.2102943179	0.003102592	0.708839113
0.0035426432	-0.0829571954	0.7073007779
-0.1033314723	-0.0829593198	0.7054332026
-0.2102065176	-0.0829654196	0.7072990589
0.0036261508	-0.1690282697	0.7088336625
-0.1033314056	-0.1687610306	0.7069535748
-0.2102881052	-0.1690354055	0.7088408416

SCALARS	theta	float 1
LOOKUP_TABLE	default
301.0719596402
300.9645962214
301.066644766
301.0303351208
300.9515591562
301.0281557023
301.050896969
300.9864497895
301.0536533381
298.6222153687
298.4484042891
298.6234736396
298.4479412592
298.2710369448
298.4484641303
298.6278520328
298.4438604815
298.6272032578
305.0449768734
304.7436884135
305.0447156395
304.727686884
304.424732433
304.7272316562
305.0423398023
304.7456865771
305.042781666

SCALARS	sig_11	float	1
LOOKUP_TABLE	default
-21.5366821549
-16.0515785457
-21.3371979022
-18.136050466
-13.3262193102
-18.0685535908
-21.2007301726
-16.7943054103
-21.3596906906
11.7095741168
19.7021647321
11.6920223322
19.5667992879
27.5453572836
19.5594019675
11.5985201688
19.6662040802
11.6061255828
-33.9332279564
-22.1986653175
-33.9327756632
-21.6591042512
-9.8818263068
-21.6520338423
-33.8943864296
-22.201456781
-33.9026179144

SCALARS	sig_22	float	1
LOOKUP_TABLE	default
-18.6242560157
-13.7055030329
-18.3037261933
-14.936598185
-10.9396082914
-14.7357527463
-17.8382100815
-14.4705210532
-17.8092823481
8.7833458035
14.7557871695
8.774289425
16.9772067939
22.957772405
16.9797578292
8.7107685494
14.8002160972
8.7258712944
-28.2001294015
-19.2449222697
-28.2044615591
-15.2285099872
-6.2372034924
-15.2238872646
-28.1642325696
-19.2667744004
-28.1774574524

SCALARS	sig_33	float	1
LOOKUP_TABLE	default
-41.3476400405
-32.1634024649
-41.1692451924
-35.6632089618
-27.2433302488
-35.5988845413
-40.851765107
-32.688027856
-40.9394539727
7.5985377253
21.8962846606
7.5711268669
20.8970393985
35.1471101486
20.8806508117
7.5564416853
21.9277971336
7.5489306147
-79.4596609725
-58.8002418114
-79.4674534085
-58.4349474692
-37.694667242
-58.4185095619
-79.4281126249
-58.8153484416
-79.4347551584

SCALARS vonMises	float	1
LOOKUP_TABLE	default
33.6181301131
28.1343981874
33.7410748534
26.1175626325
17.3484100701
26.155658838
33.9265683367
27.8597124279
33.8884444189
47.4583676808
37.3897539586
47.5265487582
36.3034656412
21.4321926462
36.3179652711
47.584999967
37.2053904371
47.5617777281
50.3403261
42.4550324038
50.3536553105
44.7267135003
36.5640851233
44.7237993153
50.3859943987
42.4312050367
50.3747313738
