# vtk DataFile Version 2.0
Results
ASCII
DATASET UNSTRUCTURED_GRID
POINTS         27           float
0.0	0.0	0.0	
50.0	0.0	0.0	
100.0	0.0	0.0	
0.0	40.0	0.0	
50.0	40.0	0.0	
100.0	40.0	0.0	
0.0	80.0	0.0	
50.0	80.0	0.0	
100.0	80.0	0.0	
0.0	0.0	70.0	
50.0	0.0	70.0	
100.0	0.0	70.0	
0.0	40.0	70.0	
50.0	40.0	70.0	
100.0	40.0	70.0	
0.0	80.0	70.0	
50.0	80.0	70.0	
100.0	80.0	70.0	
0.0	0.0	140.0	
50.0	0.0	140.0	
100.0	0.0	140.0	
0.0	40.0	140.0	
50.0	40.0	140.0	
100.0	40.0	140.0	
0.0	80.0	140.0	
50.0	80.0	140.0	
100.0	80.0	140.0	

CELLS	8	72
 8	0	1	4	3	9	10	13	12	
 8	1	2	5	4	10	11	14	13	
 8	4	5	8	7	13	14	17	16	
 8	3	4	7	6	12	13	16	15	
 8	9	10	13	12	18	19	22	21	
 8	10	11	14	13	19	20	23	22	
 8	13	14	17	16	22	23	26	25	
 8	12	13	16	15	21	22	25	24	

CELL_TYPES	8
 12
 12
 12
 12
 12
 12
 12
 12

POINT_DATA	27
VECTORS	u 	float 
0.0	0.0	0.0
-0.0102353371	0.0	0.0
-0.0200582746	0.0	0.0
0.0	-0.0102008282	0.0
-0.0102453976	-0.0102321723	0.0
-0.0207860385	-0.0100552301	0.0
0.0	-0.0195492425	0.0
-0.0103782014	-0.0211786959	0.0
-0.0206312573	-0.0193897415	0.0
-0.0318080791	-0.0279650146	-0.0056673471
-0.0101943844	-0.0267554982	0.010452564
0.0113204546	-0.027755786	-0.0056590003
-0.0317536718	-0.0102607481	0.0056121401
-0.0102845651	-0.0102137907	0.0218206235
0.0112570254	-0.0100853375	0.005594903
-0.0318763939	0.0072452134	-0.0056053441
-0.0103413575	0.0065197775	0.0105004105
0.0111601248	0.0074216414	-0.005624056
-0.0835605327	-0.0710595356	0.058323409
-0.0102044411	-0.0712537617	0.0774380717
0.0631984213	-0.0708945243	0.0583006101
-0.0837372543	-0.0103383088	0.0711210142
-0.0102634114	-0.010222522	0.0905263129
0.0631765738	-0.0101567716	0.0711187207
-0.0837391803	0.0504764021	0.0583497522
-0.0103398258	0.0507193739	0.0775093776
0.0630741724	0.0506535429	0.0583388147

VECTORS	v 	float 
0.0	0.0	0.0
6.72012e-05	0.0	0.0
0.0001299965	0.0	0.0
0.0	5.91243e-05	0.0
6.09962e-05	5.31649e-05	0.0
0.0001256088	5.84627e-05	0.0
0.0	0.0001108192	0.0
6.97092e-05	0.0001121784	0.0
0.0001372664	0.0001097978	0.0
1.94857e-05	2.27756e-05	0.0001277604
6.31211e-05	7.7159e-06	6.56785e-05
0.0001080259	2.03882e-05	0.0001274381
1.1228e-05	5.64871e-05	8.90146e-05
6.56241e-05	5.70625e-05	2.83422e-05
0.000118811	5.44141e-05	8.94468e-05
2.0374e-05	9.20686e-05	0.0001270098
6.46241e-05	0.0001046338	6.39555e-05
0.0001094914	9.02206e-05	0.0001268504
0.0002227375	0.0001914168	8.0284e-05
6.41892e-05	0.000180005	-3.41952e-05
-9.48434e-05	0.0001895523	7.96525e-05
0.0002042185	5.85925e-05	3.961e-07
6.42704e-05	5.6995e-05	-0.0001120125
-7.51408e-05	5.64846e-05	1.1896e-06
0.0002250565	-7.48089e-05	7.88446e-05
6.58735e-05	-6.53485e-05	-3.50662e-05
-9.34344e-05	-7.7092e-05	7.82257e-05

VECTORS	a 	float 
0.0	0.0	0.0
0.8950333282	0.0	0.0
1.7878848019	0.0	0.0
0.0	0.7200688472	0.0
0.8883148879	0.7128888323	0.0
1.7784751057	0.7199452943	0.0
0.0	1.436583087	0.0
0.8967325158	1.4284371342	0.0
1.7922133036	1.4363357745	0.0
-0.0023887706	0.0054190055	-3.0745818726
0.8908783185	-0.0016313483	-3.0838770945
1.7848414049	0.0041404661	-3.0749504397
-0.0069302877	0.7163989109	-3.078469243
0.8930148878	0.7174652491	-3.0856973613
1.7922486035	0.7152656732	-3.0781255212
-0.001864948	1.4283353078	-3.0751099813
0.891623505	1.435712616	-3.0849344614
1.7855115245	1.4273487075	-3.0753724711
-0.0055837024	-0.0029808392	-6.1581439849
0.8920474568	-0.0132583052	-6.180784277
1.7894692153	-0.0038577924	-6.1588497835
-0.0201940766	0.7180795486	-6.1712568414
0.891718911	0.717001422	-6.1905595235
1.8039085243	0.7170671461	-6.1705585308
-0.004448758	1.4389308755	-6.1592569522
0.8928465576	1.4475175432	-6.181124333
1.7901030957	1.4377857362	-6.1598933066

SCALARS	theta	float 1
LOOKUP_TABLE	default
297.5890401742
297.6402450867
297.5920002163
297.6104790333
297.6564572299
297.6107364818
297.5933294907
297.6353910926
297.5932822226
304.4923561514
304.5482754404
304.4919185599
304.5185888172
304.5754819823
304.5186084804
304.491411067
304.548878392
304.4914095233
314.4660277801
314.539349177
314.4659569404
314.5006845633
314.5740745296
314.5006029248
314.4663749598
314.5393830373
314.4663270221

SCALARS	sig_11	float	1
LOOKUP_TABLE	default
14.0764297229
26.7366888546
15.1629180685
23.5699662217
34.7453982766
23.0614907928
14.5311125544
25.2285535797
14.6055237045
-5.1649379431
0.3727102693
-5.2411331203
-0.6229694509
5.0812715884
-0.5930030955
-5.4734851548
0.2131579597
-5.488701226
-25.0927924015
-24.2690861093
-25.0708394886
-24.404528277
-23.5437324483
-24.4116537244
-25.0367611092
-24.2498709993
-25.029048908

SCALARS	sig_22	float	1
LOOKUP_TABLE	default
8.1156574801
19.9074275227
8.9820327038
18.4020390862
28.0315887742
18.4053858076
10.1718873431
18.0190638783
10.2356039992
-4.6642874812
-0.840435147
-4.7260152534
0.0711495833
4.1121767771
0.0743407821
-4.8476790859
-0.7342215525
-4.8490257483
-18.6283529744
-17.9879320785
-18.6135549876
-17.9570477461
-17.3036788795
-17.9505619754
-18.5601783367
-18.0298925315
-18.5619967903

SCALARS	sig_33	float	1
LOOKUP_TABLE	default
24.2345677367
55.2008420551
24.7988487974
46.8863895362
76.8348465966
46.6966247291
25.0973543792
54.3239131032
25.097216403
-6.3967840631
10.1484219641
-6.4584628126
5.7340253332
22.5026685878
5.7368247162
-6.4998417659
10.2038416358
-6.5146691911
-69.842900798
-65.6200929771
-69.8737340899
-67.4694276164
-63.0620265867
-67.4500191502
-69.853496121
-65.599024772
-69.8296149353

SCALARS vonMises	float	1
LOOKUP_TABLE	default
72.2592402663
54.3563876924
71.7044941159
59.3658411717
40.6739979799
59.6441096991
71.5827855383
55.6992258581
71.6609923289
56.9427840053
52.4951509117
56.8611750811
54.4452466869
51.4130383357
54.4810078754
56.8382921092
52.6120617428
56.8483264874
67.1884584626
66.0882325339
67.3014796998
66.6943052859
65.5527189757
66.6534601959
67.3798663373
66.0078468875
67.3697166692
