# vtk DataFile Version 2.0
Results
ASCII
DATASET UNSTRUCTURED_GRID
POINTS         27           float
0.0	0.0	0.0	
50.0	0.0	0.0	
100.0	0.0	0.0	
0.0	40.0	0.0	
50.0	40.0	0.0	
100.0	40.0	0.0	
0.0	80.0	0.0	
50.0	80.0	0.0	
100.0	80.0	0.0	
0.0	0.0	70.0	
50.0	0.0	70.0	
100.0	0.0	70.0	
0.0	40.0	70.0	
50.0	40.0	70.0	
100.0	40.0	70.0	
0.0	80.0	70.0	
50.0	80.0	70.0	
100.0	80.0	70.0	
0.0	0.0	140.0	
50.0	0.0	140.0	
100.0	0.0	140.0	
0.0	40.0	140.0	
50.0	40.0	140.0	
100.0	40.0	140.0	
0.0	80.0	140.0	
50.0	80.0	140.0	
100.0	80.0	140.0	

CELLS	8	72
 8	0	1	4	3	9	10	13	12	
 8	1	2	5	4	10	11	14	13	
 8	4	5	8	7	13	14	17	16	
 8	3	4	7	6	12	13	16	15	
 8	9	10	13	12	18	19	22	21	
 8	10	11	14	13	19	20	23	22	
 8	13	14	17	16	22	23	26	25	
 8	12	13	16	15	21	22	25	24	

CELL_TYPES	8
 12
 12
 12
 12
 12
 12
 12
 12

POINT_DATA	27
VECTORS	u 	float 
0.0	0.0	0.0
-0.0083466349	0.0	0.0
-0.0163013341	0.0	0.0
0.0	-0.0087117424	0.0
-0.0083544411	-0.0087400523	0.0
-0.0169897217	-0.0085753672	0.0
0.0	-0.0166226468	0.0
-0.008480102	-0.0181516826	0.0
-0.01683942	-0.0164746176	0.0
-0.0308787911	-0.0273524796	-0.0028990142
-0.0083072762	-0.0262290134	0.0122056843
0.0141705564	-0.0271565824	-0.0028907449
-0.0308358934	-0.008766879	0.0077043338
-0.008392112	-0.008723367	0.0228964395
0.0141207083	-0.0086026621	0.00768843
-0.0309421075	0.0096323044	-0.0028412554
-0.0084448917	0.0089623404	0.0122497809
0.0140200357	0.0097975769	-0.0028586535
-0.0778946624	-0.0662738209	0.0599989112
-0.0083171716	-0.0664751906	0.0772255864
0.06130459	-0.0661193678	0.0599778146
-0.0780865317	-0.0088392708	0.0714145623
-0.0083721778	-0.0087307262	0.0889180216
0.0613099542	-0.0086692755	0.0714127474
-0.0780620155	0.0486830904	0.0600227285
-0.0084439174	0.0489298742	0.0772917039
0.0611882926	0.0488490069	0.0600128335

VECTORS	v 	float 
0.0	0.0	0.0
7.01102e-05	0.0	0.0
0.0001359671	0.0	0.0
0.0	6.46617e-05	0.0
6.2931e-05	5.71206e-05	0.0
0.0001293468	6.39713e-05	0.0
0.0	0.0001221059	0.0
7.24712e-05	0.0001199413	0.0
0.0001429481	0.0001210294	0.0
3.14051e-05	3.76456e-05	0.0001180295
6.54172e-05	2.50436e-05	6.23896e-05
0.0001006589	3.53207e-05	0.0001176609
2.50496e-05	6.1037e-05	8.2974e-05
6.80924e-05	6.19191e-05	2.89416e-05
0.0001099534	5.90295e-05	8.34707e-05
3.22538e-05	8.6262e-05	0.0001172315
6.68909e-05	9.70452e-05	6.08049e-05
0.0001021074	8.4481e-05	0.000117039
0.0002058977	0.0001773333	6.0099e-05
6.66183e-05	0.000167834	-3.20367e-05
-7.31414e-05	0.0001755133	5.9451e-05
0.000189259	6.32971e-05	-2.4522e-06
6.6594e-05	6.16174e-05	-9.22719e-05
-5.55321e-05	6.12373e-05	-1.6279e-06
0.0002081688	-5.13017e-05	5.8612e-05
6.82558e-05	-4.39422e-05	-3.27716e-05
-7.17797e-05	-5.35373e-05	5.79947e-05

VECTORS	a 	float 
0.0	0.0	0.0
0.8945367366	0.0	0.0
1.7865231267	0.0	0.0
0.0	0.7205642005	0.0
0.8871545424	0.7127251969	0.0
1.7764652185	0.7204210473	0.0
0.0	1.4370556903	0.0
0.896449649	1.4285074012	0.0
1.7914337548	1.4367700912	0.0
-0.0035758998	0.0061720757	-3.0730474751
0.8899608324	-0.001897962	-3.0841651515
1.7843041489	0.0047147706	-3.0734540192
-0.008857481	0.7165794621	-3.0779607397
0.8923323469	0.7177295077	-3.0868625749
1.7926999431	0.71528914	-3.0775811007
-0.0029857487	1.4280805593	-3.0736411606
0.8908136105	1.4363807969	-3.0853715353
1.7850746022	1.4269584798	-3.0739283773
-0.005978858	-0.0030344921	-6.1580645285
0.89124397	-0.0142554095	-6.1832710163
1.7882182426	-0.0040509794	-6.1588504168
-0.022278758	0.7184564878	-6.1726487516
0.8909021525	0.7172454945	-6.1942357471
1.804407687	0.7172840981	-6.1718697763
-0.0046620117	1.4397045802	-6.159319359
0.8921730886	1.4490456867	-6.1836674221
1.7889579281	1.4383798488	-6.1600287289

SCALARS	theta	float 1
LOOKUP_TABLE	default
297.9392087352
297.991487063
297.942306596
297.9622334359
298.0092846552
297.9623209411
297.9433845569
297.9866274237
297.9433456807
304.7153510908
304.7608654925
304.7149429232
304.736304526
304.7828189844
304.7363802481
304.71437117
304.7613862718
304.7143626336
313.7151350659
313.7654193273
313.7150556694
313.7375242147
313.7878628406
313.737428483
313.7154564728
313.765457405
313.7154326724

SCALARS	sig_11	float	1
LOOKUP_TABLE	default
14.8807382087
26.7222300684
15.9061343552
23.7862599207
34.230532016
23.3020750709
15.3082760324
25.3096947619
15.3839877706
-6.2330968293
-1.1438797162
-6.3056207287
-2.1066831568
3.140377999
-2.0782469314
-6.5226814791
-1.2931541003
-6.5374212008
-21.9797072952
-21.3702891117
-21.9586149188
-21.5807750219
-20.9371085846
-21.5876367679
-21.9271793609
-21.3525380352
-21.9196981176

SCALARS	sig_22	float	1
LOOKUP_TABLE	default
8.9907639191
20.0159782469
9.8021347362
18.6388138001
27.6346769677
18.6370548788
10.92185922
18.2449112289
10.9803363115
-5.4792621496
-1.977969884
-5.5382932623
-1.1863527946
2.5198979413
-1.1837070278
-5.6512051001
-1.8776312179
-5.6530614224
-16.1875898883
-15.7132865774
-16.1731492619
-15.8426334841
-15.3567997225
-15.8364157982
-16.1234832764
-15.7528171443
-16.1248592924

SCALARS	sig_33	float	1
LOOKUP_TABLE	default
25.0859441176
54.0843900361
25.615265661
46.3632054147
74.4114385693
46.1828651555
25.8950155214
53.2639842459
25.8971837848
-8.0586372237
6.9634016759
-8.1173806334
2.8421535381
18.0769124892
2.844892675
-8.1554560931
7.0161089266
-8.1693302878
-61.8301997244
-58.8079283011
-61.8588396855
-60.579755756
-57.3845824233
-60.5615341189
-61.8405862632
-58.7883380823
-61.8177005653

SCALARS vonMises	float	1
LOOKUP_TABLE	default
71.0554307831
53.3984349897
70.5278841647
58.0590942707
39.1565078303
58.3252375076
70.4050928729
54.6583249173
70.4762661143
53.042326578
48.6979954797
52.9553321621
50.632767607
47.6316900644
50.6720612555
52.93094431
48.8376431247
52.9402400728
60.5635680993
59.9262037938
60.6704668975
60.3673635324
59.6796096207
60.3281052811
60.743554146
59.8514180192
60.7345177638
