# vtk DataFile Version 2.0
Results
ASCII
DATASET UNSTRUCTURED_GRID
POINTS         27           float
0.0	0.0	0.0	
50.0	0.0	0.0	
100.0	0.0	0.0	
0.0	40.0	0.0	
50.0	40.0	0.0	
100.0	40.0	0.0	
0.0	80.0	0.0	
50.0	80.0	0.0	
100.0	80.0	0.0	
0.0	0.0	70.0	
50.0	0.0	70.0	
100.0	0.0	70.0	
0.0	40.0	70.0	
50.0	40.0	70.0	
100.0	40.0	70.0	
0.0	80.0	70.0	
50.0	80.0	70.0	
100.0	80.0	70.0	
0.0	0.0	140.0	
50.0	0.0	140.0	
100.0	0.0	140.0	
0.0	40.0	140.0	
50.0	40.0	140.0	
100.0	40.0	140.0	
0.0	80.0	140.0	
50.0	80.0	140.0	
100.0	80.0	140.0	

CELLS	8	72
 8	0	1	4	3	9	10	13	12	
 8	1	2	5	4	10	11	14	13	
 8	4	5	8	7	13	14	17	16	
 8	3	4	7	6	12	13	16	15	
 8	9	10	13	12	18	19	22	21	
 8	10	11	14	13	19	20	23	22	
 8	13	14	17	16	22	23	26	25	
 8	12	13	16	15	21	22	25	24	

CELL_TYPES	8
 12
 12
 12
 12
 12
 12
 12
 12

POINT_DATA	27
VECTORS	u 	float 
0.0	0.0	0.0
-0.0111404859	0.0	0.0
-0.0218595434	0.0	0.0
0.0	-0.0108908548	0.0
-0.0111501808	-0.0109210092	0.0
-0.0226018235	-0.0107403784	0.0
0.0	-0.0209035101	0.0
-0.011288057	-0.022577759	0.0
-0.022449838	-0.0207376641	0.0
-0.0321096484	-0.0280926257	-0.0070989416
-0.0110977789	-0.0268408157	0.009535599
0.0098128931	-0.0278766249	-0.0070905653
-0.0320520237	-0.0109515875	0.0045176057
-0.0111910053	-0.0109033787	0.0212400033
0.0097439519	-0.0107705006	0.0044995277
-0.0321805814	0.0059852021	-0.0070346241
-0.0112495296	0.0052318674	0.0095851642
0.0096475732	0.0061672764	-0.0070540059
-0.086554232	-0.0735833529	0.0573694835
-0.0111081582	-0.0737727588	0.0775525382
0.0643858565	-0.0734131196	0.0573457806
-0.0867225895	-0.0110320587	0.0709624681
-0.01116894	-0.0109124209	0.0914419059
0.0643501475	-0.0108448091	0.0709598285
-0.0867384093	0.0516155667	0.0573972965
-0.0112477591	0.0518558049	0.0776263229
0.0642577203	0.0517982457	0.0573857443

VECTORS	v 	float 
0.0	0.0	0.0
7.32555e-05	0.0	0.0
0.0001498138	0.0	0.0
0.0	4.71459e-05	0.0
7.94303e-05	5.23217e-05	0.0
0.0001559734	4.68758e-05	0.0
0.0	9.75704e-05	0.0
7.13967e-05	0.0001022607	0.0
0.0001451616	9.72873e-05	0.0
2.90725e-05	-3.7323e-06	9.33951e-05
7.70098e-05	4.7474e-06	7.49633e-05
0.0001239519	-2.4925e-06	9.37329e-05
3.74999e-05	4.9535e-05	7.96495e-05
7.49846e-05	4.88141e-05	6.01575e-05
0.0001135261	5.06499e-05	7.94529e-05
2.86327e-05	0.0001018732	9.3823e-05
7.63396e-05	9.36921e-05	7.64196e-05
0.0001233871	0.0001027764	9.40916e-05
0.0002374782	0.0001974664	7.05957e-05
7.59187e-05	0.000207544	1.60729e-05
-8.53206e-05	0.000198381	7.14542e-05
0.0002547261	4.79417e-05	2.4401e-05
7.61844e-05	4.88637e-05	-3.2938e-05
-0.000102802	4.90271e-05	2.36843e-05
0.0002361467	-0.0001014552	7.18379e-05
7.50037e-05	-0.0001100348	1.65476e-05
-8.60212e-05	-0.0001001556	7.26183e-05

VECTORS	a 	float 
0.0	0.0	0.0
-0.8952938102	0.0	0.0
-1.7885934739	0.0	0.0
0.0	-0.719801018	0.0
-0.8889529721	-0.7129851885	0.0
-1.7795927903	-0.7196839308	0.0
0.0	-1.4363001638	0.0
-0.8968857481	-1.4284363327	0.0
-1.7926332417	-1.4360660948	0.0
0.0017011518	-0.0050587571	3.0752131548
-0.8913738762	0.0015402486	3.0837515927
-1.7850885565	-0.0038642822	3.0755621407
0.0059156414	-0.7163086967	3.0787024929
-0.8933835491	-0.7173222313	3.0852500087
-1.7920275321	-0.7152491088	3.0783749496
0.0012071816	-1.428447482	3.0757064872
-0.8920697388	-1.4353976075	3.0847366971
-1.7857136216	-1.4275238607	3.0759564968
0.0053858611	0.002922993	6.1579007693
-0.8924744353	0.0127759994	6.1795715014
-1.7901449004	0.0037437955	6.1585648661
0.0191845935	-0.717888587	6.1705350393
-0.8921628577	-0.7168758803	6.1890138285
-1.8037628764	-0.716942577	6.1698764235
0.0043284499	-1.4385074831	6.1589407482
-0.8932213987	-1.4467634497	6.179885759
-1.7907384852	-1.437438693	6.1595396051

SCALARS	theta	float 1
LOOKUP_TABLE	default
297.4302156023
297.4805850235
297.4331140617
297.4507156878
297.4958006766
297.4510321084
297.4346029675
297.4756980119
297.4345832745
304.3493216786
304.4116888367
304.3488511343
304.3789962382
304.4423607916
304.3789937362
304.3483824195
304.4123591222
304.3483724682
314.8830470369
314.971134545
314.8829967156
314.9258386219
315.0139927485
314.9257590021
314.8834178946
314.97115197
314.883366811

SCALARS	sig_11	float	1
LOOKUP_TABLE	default
13.3661695109
26.46922245
14.4842445171
23.1696044293
34.7414101817
22.6492426633
13.8355942867
24.909389269
13.9085955644
-4.3869558942
1.4125718375
-4.4650118688
0.396465284
6.3673124247
0.427209085
-4.7056759565
1.2477527868
-4.7210688865
-26.971164449
-25.9950133375
-26.9488077638
-26.088825193
-25.0739820869
-26.096096161
-26.9131142267
-25.9750322158
-26.9053252146

SCALARS	sig_22	float	1
LOOKUP_TABLE	default
7.4231219325
19.6253619714
8.3191680834
18.0487642263
28.0179610983
18.0553705441
9.5457188079
17.6743965413
9.6127848862
-4.0653622001
-0.0565311043
-4.1284333027
0.9316686653
5.1642549253
0.9352213974
-4.254952233
0.0528701089
-4.2559630636
-20.1082915732
-19.3560127503
-20.0933518599
-19.212971452
-18.4468705793
-19.2063880138
-20.0378757639
-19.399281184
-20.0399659916

SCALARS	sig_33	float	1
LOOKUP_TABLE	default
23.3772108683
55.3925181615
23.9602918963
46.7497590358
77.7101837243
46.5551590749
24.2689957521
54.4848902983
24.2675451522
-5.2177924274
12.2194896549
-5.2810328721
7.6433310965
25.3096965565
7.6461667924
-5.3243472379
12.2765632928
-5.3396987868
-74.6042015036
-69.5811047043
-74.6361816187
-71.4721926966
-66.2583264739
-71.4522026462
-74.6146599083
-69.5593424931
-74.5903133721

SCALARS vonMises	float	1
LOOKUP_TABLE	default
72.3339196695
54.4507488758
71.7647286343
59.647087228
41.3060891223
59.9338022107
71.6458075991
55.8421460697
71.7273508376
59.0134661044
54.6055099644
58.9366963279
56.516586184
53.5254506335
56.5498970632
58.9150298801
54.7056450145
58.9250044381
70.9405149856
69.6143591447
71.0567640368
70.3016669082
68.9473853455
70.2599222349
71.1375585301
69.5314581851
71.1269283458
