# vtk DataFile Version 2.0
Results
ASCII
DATASET UNSTRUCTURED_GRID
POINTS         27           float
0.0	0.0	0.0	
50.0	0.0	0.0	
100.0	0.0	0.0	
0.0	40.0	0.0	
50.0	40.0	0.0	
100.0	40.0	0.0	
0.0	80.0	0.0	
50.0	80.0	0.0	
100.0	80.0	0.0	
0.0	0.0	70.0	
50.0	0.0	70.0	
100.0	0.0	70.0	
0.0	40.0	70.0	
50.0	40.0	70.0	
100.0	40.0	70.0	
0.0	80.0	70.0	
50.0	80.0	70.0	
100.0	80.0	70.0	
0.0	0.0	140.0	
50.0	0.0	140.0	
100.0	0.0	140.0	
0.0	40.0	140.0	
50.0	40.0	140.0	
100.0	40.0	140.0	
0.0	80.0	140.0	
50.0	80.0	140.0	
100.0	80.0	140.0	

CELLS	8	72
 8	0	1	4	3	9	10	13	12	
 8	1	2	5	4	10	11	14	13	
 8	4	5	8	7	13	14	17	16	
 8	3	4	7	6	12	13	16	15	
 8	9	10	13	12	18	19	22	21	
 8	10	11	14	13	19	20	23	22	
 8	13	14	17	16	22	23	26	25	
 8	12	13	16	15	21	22	25	24	

CELL_TYPES	8
 12
 12
 12
 12
 12
 12
 12
 12

POINT_DATA	27
VECTORS	u 	float 
0.0	0.0	0.0
-0.0080506145	0.0	0.0
-0.0157125145	0.0	0.0
0.0	-0.0084735734	0.0
-0.0080582117	-0.0085016166	0.0
-0.0163949837	-0.0083385768	0.0
0.0	-0.0161540761	0.0
-0.0081827049	-0.0176683579	0.0
-0.0162453814	-0.0160077249	0.0
-0.0307068758	-0.0272256907	-0.0024870162
-0.0080115743	-0.0261145202	0.0124662737
0.0145908502	-0.0270317751	-0.0024787792
-0.0306653584	-0.0085281199	0.0080143934
-0.0080955871	-0.0084850773	0.023054815
0.0145426736	-0.0083655636	0.0079986917
-0.0307694679	0.0099848272	-0.0024298934
-0.0081477975	0.0093226509	0.0125098375
0.0144417978	0.0101484421	-0.002447106
-0.0770594993	-0.0655675921	0.0602293612
-0.0080214204	-0.0657692118	0.0771952744
0.0610605416	-0.0654147073	0.0602085087
-0.0772528069	-0.0085997234	0.0714564647
-0.0080758519	-0.0084922717	0.0886969849
0.0610691435	-0.008431444	0.0714547178
-0.0772251688	0.0484551007	0.0602528112
-0.0081468843	0.0487016281	0.0772606389
0.0609454208	0.0486193493	0.0602430605

VECTORS	v 	float 
0.0	0.0	0.0
7.02747e-05	0.0	0.0
0.0001362736	0.0	0.0
0.0	6.51022e-05	0.0
6.30678e-05	5.75757e-05	0.0
0.0001296384	6.44189e-05	0.0
0.0	0.0001229897	0.0
7.26365e-05	0.0001208487	0.0
0.0001432572	0.0001219273	0.0
3.28953e-05	3.94977e-05	0.0001171492
6.5567e-05	2.69416e-05	6.17715e-05
9.94729e-05	3.71772e-05	0.0001167831
2.65591e-05	6.14858e-05	8.22342e-05
6.82464e-05	6.23677e-05	2.84359e-05
0.0001087476	5.94818e-05	8.27237e-05
3.37406e-05	8.53072e-05	0.0001163522
6.7037e-05	9.60455e-05	6.01851e-05
0.0001009174	8.35294e-05	0.0001161624
0.0002035124	0.0001753677	5.83689e-05
6.67734e-05	0.0001659627	-3.19051e-05
-7.04475e-05	0.0001735519	5.77217e-05
0.0001869491	6.37444e-05	-2.6281e-06
6.67455e-05	6.20676e-05	-9.06094e-05
-5.29174e-05	6.16889e-05	-1.8087e-06
0.0002057807	-4.84411e-05	5.68822e-05
6.84077e-05	-4.11712e-05	-3.264e-05
-6.90893e-05	-5.0673e-05	5.62661e-05

VECTORS	a 	float 
0.0	0.0	0.0
0.894464731	0.0	0.0
1.7863220592	0.0	0.0
0.0	0.7206440086	0.0
0.8869717156	0.7126966312	0.0
1.7761476017	0.7204979662	0.0
0.0	1.4371353061	0.0
0.8964107469	1.4285115912	0.0
1.7913227942	1.4368440489	0.0
-0.0037622157	0.0062855441	-3.0728251254
0.889818793	-0.0019361888	-3.0842098149
1.7842235149	0.0048006825	-3.0732375554
-0.0091505771	0.7166067587	-3.0778828578
0.8922283289	0.7177709427	-3.0870281299
1.7927678696	0.7152922137	-3.0774977571
-0.0031618409	1.428042907	-3.0734290847
0.8906881357	1.4364822759	-3.0854391453
1.7850093882	1.4268999153	-3.0737201255
-0.0060402349	-0.0030433183	-6.1580721579
0.8911207888	-0.0144078574	-6.1836541671
1.7880271951	-0.0040813047	-6.1588705025
-0.0225979382	0.7185149387	-6.172863247
0.8907762152	0.7172830246	-6.1947813064
1.8044824079	0.7173179034	-6.1720718039
-0.0046953384	1.4398250751	-6.159349077
0.8920699356	1.4492798258	-6.1840591371
1.7887831673	1.438472657	-6.1600697649

SCALARS	theta	float 1
LOOKUP_TABLE	default
297.9958451086
298.0481405906
297.9989508587
298.0190063654
298.0660863822
298.0190773146
297.9999985635
298.0432885545
297.9999560044
304.7435072156
304.7876503164
304.7431047367
304.7637866174
304.8089280605
304.7638676484
304.7425246615
304.7881585978
304.7425164435
313.6082421003
313.6556090023
313.6081612337
313.6291161481
313.6765370731
313.629020213
313.6085589586
313.6556476319
313.6085377005

SCALARS	sig_11	float	1
LOOKUP_TABLE	default
14.9495226231
26.6685614463
15.9654228678
23.7663427159
34.1016308143
23.286153006
15.3729278263
25.270445426
15.4485674453
-6.3501505321
-1.3248794682
-6.4220803113
-2.2818697448
2.8998489014
-2.2536851141
-6.636867011
-1.4726223496
-6.6515100839
-21.5612676449
-20.9785978806
-21.5403298695
-21.1979650639
-20.5814603681
-21.20477842
-21.5092710754
-20.9610569461
-21.5018413938

SCALARS	sig_22	float	1
LOOKUP_TABLE	default
9.0794418075
19.9904394391
9.882560168
18.6310454581
27.532827714
18.6287729109
10.9915844548
18.2370973985
11.0493160446
-5.5670950425
-2.1112775918
-5.6256754484
-1.3362354076
2.3226357016
-1.3336646258
-5.7373064654
-2.0118455638
-5.7392090784
-15.861454508
-15.4077608185
-15.8470953177
-15.5568606554
-15.0918351109
-15.5506860226
-15.7979656668
-15.4469149859
-15.7992957416

SCALARS	sig_33	float	1
LOOKUP_TABLE	default
25.1410801282
53.844635026
25.6650894713
46.2101891208
73.9736469303
46.0313983066
25.9420407789
53.0327328346
25.9444634646
-8.2433334929
6.5652424527
-8.3016029668
2.4872236686
17.5067729957
2.4899384847
-8.3391996723
6.6175105693
-8.352923478
-60.7423794746
-57.8710910536
-60.7707118841
-59.6304995855
-56.5880647933
-59.6124508139
-60.752725416
-57.8517102127
-60.7300164675

SCALARS vonMises	float	1
LOOKUP_TABLE	default
70.7733668018
53.1808820062
70.2502764954
57.7901283639
38.8982097694
58.0541342497
70.127685293
54.4280424573
70.1979115391
52.4746436317
48.1524176024
52.3873088544
50.0804696216
47.0841236417
50.1200545705
52.3628452916
48.2943575313
52.3720681601
59.6492410954
59.0657976688
59.7551937277
59.4873977874
58.8526023007
59.4484017071
59.8275041327
58.9918155688
59.8186263268
