# vtk DataFile Version 2.0
Results
ASCII
DATASET UNSTRUCTURED_GRID
POINTS         27           float
0.0	0.0	0.0	
50.0	0.0	0.0	
100.0	0.0	0.0	
0.0	40.0	0.0	
50.0	40.0	0.0	
100.0	40.0	0.0	
0.0	80.0	0.0	
50.0	80.0	0.0	
100.0	80.0	0.0	
0.0	0.0	70.0	
50.0	0.0	70.0	
100.0	0.0	70.0	
0.0	40.0	70.0	
50.0	40.0	70.0	
100.0	40.0	70.0	
0.0	80.0	70.0	
50.0	80.0	70.0	
100.0	80.0	70.0	
0.0	0.0	140.0	
50.0	0.0	140.0	
100.0	0.0	140.0	
0.0	40.0	140.0	
50.0	40.0	140.0	
100.0	40.0	140.0	
0.0	80.0	140.0	
50.0	80.0	140.0	
100.0	80.0	140.0	

CELLS	8	72
 8	0	1	4	3	9	10	13	12	
 8	1	2	5	4	10	11	14	13	
 8	4	5	8	7	13	14	17	16	
 8	3	4	7	6	12	13	16	15	
 8	9	10	13	12	18	19	22	21	
 8	10	11	14	13	19	20	23	22	
 8	13	14	17	16	22	23	26	25	
 8	12	13	16	15	21	22	25	24	

CELL_TYPES	8
 12
 12
 12
 12
 12
 12
 12
 12

POINT_DATA	27
VECTORS	u 	float 
0.0	0.0	0.0
0.004618265	0.0	0.0
0.0092702023	0.0	0.0
0.0	0.0083182168	0.0
0.0045425389	0.0082694984	0.0
0.0090616113	0.0085101621	0.0
0.0	0.0174235936	0.0
0.0044189435	0.0159061724	0.0
0.0086627901	0.0177375262	0.0
0.0202705132	0.0252620846	-0.0205940159
0.0046269954	0.0286729066	-0.0076728069
-0.0110309792	0.0255217187	-0.020620311
0.020376545	0.0082238607	-0.0129390802
0.0045332881	0.0083045123	-0.0004853542
-0.011309502	0.0084552142	-0.0129964698
0.020146818	-0.0090007864	-0.0205234528
0.0044385845	-0.0118781024	-0.0075847041
-0.0112312869	-0.008773037	-0.0205630947
-0.0785427749	-0.0675555698	-0.007530766
0.0046544388	-0.063360417	0.0322990662
0.0878645529	-0.0673316455	-0.0075804346
-0.0777444148	0.0081285032	0.0244631591
0.0045647327	0.0082688372	0.0640572454
0.0868725063	0.0083623	0.0244296415
-0.0787622193	0.0838999446	-0.0074671622
0.0044748242	0.0798090152	0.0323892708
0.0876971736	0.0841265927	-0.0075104468

VECTORS	v 	float 
0.0	0.0	0.0
0.0022045791	0.0	0.0
0.0044085943	0.0	0.0
0.0	0.0018207356	0.0
0.0021960904	0.0018120407	0.0
0.0043931452	0.0018236098	0.0
0.0	0.0036511266	0.0
0.0022037092	0.0036157502	0.0
0.0044041209	0.0036553166	0.0
0.0001506802	0.0002412746	-0.0080063672
0.0022002918	0.0002778924	-0.0077685288
0.0042501343	0.0002438176	-0.0080071199
0.0001454188	0.0018153811	-0.0078583765
0.0022011917	0.0018176795	-0.0076231264
0.0042563208	0.0018175537	-0.0078585576
0.0001494963	0.0033873778	-0.0080055991
0.0021982268	0.0033596783	-0.0077688319
0.0042478176	0.0033897091	-0.0080066207
-0.0014870243	-0.0012672407	-0.0152330047
0.0022017371	-0.0012353465	-0.0146017866
0.0058906231	-0.0012651526	-0.0152346354
-0.0014977488	0.0018158984	-0.0147288184
0.0022001457	0.0018168479	-0.0140953185
0.0058982728	0.0018180563	-0.0147282266
-0.0014887815	0.0049003774	-0.0152334665
0.0022002256	0.0048677653	-0.0146007513
0.0058890405	0.0049022585	-0.0152349532

VECTORS	a 	float 
0.0	0.0	0.0
0.4346719961	0.0	0.0
0.8691949695	0.0	0.0
0.0	0.3480883316	0.0
0.434332507	0.3478292118	0.0
0.8687879042	0.3481094599	0.0
0.0	0.6960211045	0.0
0.4347717691	0.6957683979	0.0
0.8694246535	0.6960598095	0.0
0.0023919311	0.0026789994	-1.494675935
0.4344699566	0.002482835	-1.4948632682
0.8665940542	0.0026265092	-1.4946938141
0.002180764	0.3479669822	-1.4946556866
0.4345754597	0.3480064049	-1.4948535539
0.8669247169	0.3479189176	-1.4946546606
0.0024139791	0.693298267	-1.4946930863
0.4344949998	0.6934952645	-1.4949300639
0.8666109676	0.693256498	-1.4947089101
-0.0043683309	-0.0036635426	-2.9874169848
0.4345338202	-0.0037911574	-2.9869670737
0.8734258617	-0.0036959697	-2.9874663349
-0.0048850968	0.3480393447	-2.9865963651
0.4345142374	0.3479996247	-2.98606164
0.8739276304	0.347999707	-2.9865615762
-0.0043188396	0.6997372888	-2.9874716054
0.4345678504	0.699796689	-2.9869861746
0.8734509561	0.6996890635	-2.9875188096

SCALARS	theta	float 1
LOOKUP_TABLE	default
302.6499860609
302.4004025615
302.6369168603
302.5520664131
302.3384755432
302.5479917795
302.6198144954
302.434223668
302.6237912626
295.5651074749
295.2215528199
295.5673518188
295.320246431
294.9719289638
295.3208613953
295.5721591748
295.2171213536
295.5714953443
317.8700278559
317.3353633091
317.8698299314
317.450349025
316.9155179566
317.4499442118
317.8678189823
317.3362803553
317.8680856248

SCALARS	sig_11	float	1
LOOKUP_TABLE	default
-65.0463223551
-48.149553808
-64.415749905
-55.0382885547
-39.7042230648
-54.8705873272
-64.3657386833
-50.1899539174
-64.8151778693
42.6656228003
64.8234684428
42.6198915221
62.250888218
84.4110389242
62.2352668989
42.3423054237
64.6591328453
42.3599811247
-104.5504784747
-74.0309431313
-104.552291726
-75.5111974878
-44.9213244736
-75.4977072845
-104.4716836659
-74.0057860693
-104.4890808917

SCALARS	sig_22	float	1
LOOKUP_TABLE	default
-56.4073874588
-41.237779043
-55.3993696481
-45.5263904002
-32.8472850721
-44.9320040602
-54.1165307847
-43.4744026823
-53.9816651696
33.0680277933
49.0298471173
33.0487559806
53.2472701928
69.292810113
53.2625301902
32.8672134832
49.1416704599
32.9098902709
-84.882441171
-62.3900999223
-84.896924834
-54.4476601842
-31.9171577731
-54.4425704225
-84.7991037643
-62.43310538
-84.8314431129

SCALARS	sig_33	float	1
LOOKUP_TABLE	default
-99.2723432244
-67.6208672063
-98.7379391146
-80.2868310429
-50.4184126903
-80.1258674646
-98.0622740052
-68.9471319267
-98.2787093816
57.4783803027
102.3697039719
57.407432033
95.8966693165
140.6968090548
95.8565538001
57.3811395062
102.4312329925
57.3530022629
-232.9052640593
-171.5147120798
-232.9408510894
-174.5788115331
-113.0141372635
-174.5392169655
-232.8671328341
-171.5092743002
-232.8750284982

SCALARS vonMises	float	1
LOOKUP_TABLE	default
91.2445956632
76.6815610843
91.6763258981
67.5958830787
42.5103076528
67.6903466531
92.3872586966
75.7870039823
92.2561366627
157.7302808681
128.8147940661
157.966877458
124.4766253466
85.1802342553
124.5134664208
158.1991892661
128.1969072893
158.1175632569
159.9390090645
136.9909197443
159.9915679677
145.0786960219
122.7941072582
145.07810944
160.1116849213
136.8994245877
160.0681341279
