# vtk DataFile Version 2.0
Results
ASCII
DATASET UNSTRUCTURED_GRID
POINTS         27           float
0.0	0.0	0.0	
50.0	0.0	0.0	
100.0	0.0	0.0	
0.0	40.0	0.0	
50.0	40.0	0.0	
100.0	40.0	0.0	
0.0	80.0	0.0	
50.0	80.0	0.0	
100.0	80.0	0.0	
0.0	0.0	70.0	
50.0	0.0	70.0	
100.0	0.0	70.0	
0.0	40.0	70.0	
50.0	40.0	70.0	
100.0	40.0	70.0	
0.0	80.0	70.0	
50.0	80.0	70.0	
100.0	80.0	70.0	
0.0	0.0	140.0	
50.0	0.0	140.0	
100.0	0.0	140.0	
0.0	40.0	140.0	
50.0	40.0	140.0	
100.0	40.0	140.0	
0.0	80.0	140.0	
50.0	80.0	140.0	
100.0	80.0	140.0	

CELLS	8	72
 8	0	1	4	3	9	10	13	12	
 8	1	2	5	4	10	11	14	13	
 8	4	5	8	7	13	14	17	16	
 8	3	4	7	6	12	13	16	15	
 8	9	10	13	12	18	19	22	21	
 8	10	11	14	13	19	20	23	22	
 8	13	14	17	16	22	23	26	25	
 8	12	13	16	15	21	22	25	24	

CELL_TYPES	8
 12
 12
 12
 12
 12
 12
 12
 12

POINT_DATA	27
VECTORS	u 	float 
0.0	0.0	0.0
-0.0026128285	0.0	0.0
-0.0048972326	0.0	0.0
0.0	-0.0039676779	0.0
-0.0026183665	-0.0039921588	0.0
-0.0054722715	-0.0038561975	0.0
0.0	-0.0072772776	0.0
-0.0027218797	-0.0085369477	0.0
-0.0053400066	-0.0071583858	0.0
-0.0268184089	-0.0240400412	0.0044898553
-0.0025802186	-0.0231301461	0.0168587135
0.0215798673	-0.0238799019	0.0044971995
-0.0267938878	-0.0040130463	0.0132207503
-0.00264988	-0.0039776284	0.0256680415
0.0215521573	-0.0038787476	0.0132082996
-0.0268691872	0.0158605621	0.0045363021
-0.0026926914	0.0153224293	0.0168936428
0.0214561422	0.0159958966	0.0045221746
-0.0631777547	-0.0538014536	0.0635922981
-0.0025889042	-0.0539898465	0.076717343
0.0580367685	-0.0536754088	0.0635755093
-0.0633732314	-0.00407122	0.0721152722
-0.0026336471	-0.003982555	0.0854734481
0.0580789853	-0.0039323416	0.072114366
-0.0633144179	0.0457311002	0.0636100293
-0.0026923828	0.0459559453	0.0767702246
0.0579417579	0.0458667588	0.0636025439

VECTORS	v 	float 
0.0	0.0	0.0
7.93521e-05	0.0	0.0
0.0001518122	0.0	0.0
0.0	6.54415e-05	0.0
7.24454e-05	6.26063e-05	0.0
0.0001505529	6.55813e-05	0.0
0.0	0.0001228905	0.0
8.27372e-05	0.0001313858	0.0
0.0001608726	0.0001232323	0.0
5.50491e-05	6.02333e-05	9.09109e-05
7.51453e-05	4.17845e-05	3.6591e-05
9.71887e-05	5.78973e-05	9.05389e-05
4.49928e-05	6.4907e-05	5.88179e-05
7.79635e-05	6.51972e-05	4.8573e-06
0.000109071	6.28772e-05	5.87894e-05
5.58626e-05	7.17583e-05	8.99442e-05
7.64192e-05	8.66898e-05	3.43542e-05
9.81849e-05	7.00203e-05	8.97917e-05
0.0002014022	0.0001529525	4.55499e-05
7.67234e-05	0.0001429799	-3.44809e-05
-4.866e-05	0.0001516584	4.45366e-05
0.0001857164	6.69455e-05	3.603e-07
7.64271e-05	6.55618e-05	-7.85626e-05
-3.2072e-05	6.53307e-05	1.097e-06
0.0002033814	-1.97375e-05	4.3805e-05
7.79362e-05	-1.10929e-05	-3.56016e-05
-4.77706e-05	-2.16464e-05	4.28344e-05

VECTORS	a 	float 
0.0	0.0	0.0
0.8941087948	0.0	0.0
1.7843791705	0.0	0.0
0.0	0.7222048224	0.0
0.8845323624	0.7124255861	0.0
1.772303548	0.7220325656	0.0
0.0	1.4386646279	0.0
0.8967252412	1.4291925596	0.0
1.7911985884	1.4383089397	0.0
-0.0065957144	0.0086276879	-3.0695398538
0.8881570677	-0.0028279438	-3.0861586958
1.7840964152	0.0066099107	-3.0700606475
-0.014115887	0.7173191004	-3.077270625
0.8912966261	0.7187251493	-3.0912620238
1.7955067803	0.7155394681	-3.0768025272
-0.0058024775	1.4275567622	-3.0703524597
0.8893379859	1.4388884847	-3.0878575033
1.7851586955	1.4260193958	-3.070709549
-0.0043520959	-0.0024376155	-6.1576905824
0.8898341198	-0.016539928	-6.1910826966
1.7836342194	-0.0038579844	-6.1587317576
-0.0256524279	0.7198142038	-6.1764186507
0.8894228966	0.7181931698	-6.2053993231
1.8049900074	0.7181688998	-6.1753990981
-0.0024821026	1.4417075663	-6.1594050137
0.8911418764	1.4533719534	-6.1916703241
1.7846726277	1.4398412994	-6.1603464784

SCALARS	theta	float 1
LOOKUP_TABLE	default
299.0843834688
299.1334328815
299.0873581647
299.1074551046
299.1517339802
299.1073934686
299.0880580551
299.1289077046
299.0879192661
305.072386667
305.0991878108
305.0720790576
305.0844956296
305.1122028805
305.0846143364
305.0714114187
305.0995127527
305.0714170607
311.9425599237
311.9564263698
311.9424707954
311.9466436259
311.9605697486
311.9465730449
311.9428009837
311.956456922
311.94280901

SCALARS	sig_11	float	1
LOOKUP_TABLE	default
14.6236067939
24.2774592789
15.4700102906
21.9212690977
30.4274753014
21.5177147963
14.9763883552
23.1252509387
15.0439869712
-7.1034203197
-3.0754931965
-7.1641583891
-3.9081511907
0.2507284504
-3.8847310458
-7.3408844869
-3.1973274503
-7.3532974611
-15.8129516872
-15.5408535419
-15.7952899867
-15.840317454
-15.5409247776
-15.8460737177
-15.7700381355
-15.5266749104
-15.7639037494

SCALARS	sig_22	float	1
LOOKUP_TABLE	default
9.3597250049
18.3503659242
10.0228641016
17.2589049454
24.5873204583
17.2538884465
10.9453221192
16.9010574128
10.9913761206
-6.0762787643
-3.3185542605
-6.1260624175
-2.7736358968
0.1532732114
-2.7720353692
-6.2168041133
-3.235217369
-6.218809531
-11.4434929651
-11.229088049
-11.4312469727
-11.5768996647
-11.3539554946
-11.5715295674
-11.3906756163
-11.2615547416
-11.3917521402

SCALARS	sig_33	float	1
LOOKUP_TABLE	default
23.9543394868
47.6530247385
24.3868424221
41.4312817423
64.3600811166
41.2821230989
24.6170830971
46.9851404792
24.6211597074
-9.5548299393
2.0486926729
-9.6043090743
-1.308559504
10.4732597525
-1.306441799
-9.634308544
2.092820728
-9.6454633116
-45.4232992131
-44.2921444906
-45.4468912117
-45.8077822926
-44.5352894261
-45.7925361826
-45.4324800923
-44.2761209659
-45.4135309062

SCALARS vonMises	float	1
LOOKUP_TABLE	default
62.9749550362
47.2774500081
62.53580919
51.0349077285
33.5676917794
51.2572606285
62.4252043533
48.3058565374
62.4810030718
43.1036160391
39.3572954017
43.0206940847
41.052137817
38.2721316456
41.0913011624
42.9979134706
39.5099367554
43.0058600281
46.1793527778
46.1786594766
46.2678808529
46.3736025157
46.3200501421
46.3402415169
46.3275763945
46.1179993737
46.3206679206
