# vtk DataFile Version 2.0
Results
ASCII
DATASET UNSTRUCTURED_GRID
POINTS         27           float
0.0	0.0	0.0	
50.0	0.0	0.0	
100.0	0.0	0.0	
0.0	40.0	0.0	
50.0	40.0	0.0	
100.0	40.0	0.0	
0.0	80.0	0.0	
50.0	80.0	0.0	
100.0	80.0	0.0	
0.0	0.0	70.0	
50.0	0.0	70.0	
100.0	0.0	70.0	
0.0	40.0	70.0	
50.0	40.0	70.0	
100.0	40.0	70.0	
0.0	80.0	70.0	
50.0	80.0	70.0	
100.0	80.0	70.0	
0.0	0.0	140.0	
50.0	0.0	140.0	
100.0	0.0	140.0	
0.0	40.0	140.0	
50.0	40.0	140.0	
100.0	40.0	140.0	
0.0	80.0	140.0	
50.0	80.0	140.0	
100.0	80.0	140.0	

CELLS	8	72
 8	0	1	4	3	9	10	13	12	
 8	1	2	5	4	10	11	14	13	
 8	4	5	8	7	13	14	17	16	
 8	3	4	7	6	12	13	16	15	
 8	9	10	13	12	18	19	22	21	
 8	10	11	14	13	19	20	23	22	
 8	13	14	17	16	22	23	26	25	
 8	12	13	16	15	21	22	25	24	

CELL_TYPES	8
 12
 12
 12
 12
 12
 12
 12
 12

POINT_DATA	27
VECTORS	u 	float 
0.0	0.0	0.0
-0.015118865	0.0	0.0
-0.0297935052	0.0	0.0
0.0	-0.0127294504	0.0
-0.0151458366	-0.0127626163	0.0
-0.0306040024	-0.0125339554	0.0
0.0	-0.0243782305	0.0
-0.015310943	-0.0264273372	0.0
-0.0305260998	-0.0241431058	0.0
-0.0267885663	-0.0209267782	-0.0188118098
-0.0150727936	-0.0191258376	0.0019538043
-0.0034667982	-0.0206492455	-0.0188074857
-0.0266965135	-0.0128073949	-0.0047543845
-0.0151884034	-0.0127418919	0.0160488955
-0.0036049178	-0.0125737317	-0.0047826571
-0.0268882129	-0.0049382174	-0.0187280683
-0.0152683388	-0.0061131793	0.0020215281
-0.0036765311	-0.0047046246	-0.0187553722
-0.112928505	-0.095760794	0.0452825263
-0.0150796145	-0.0955616757	0.0787612063
0.0828226946	-0.0955404869	0.045248527
-0.1129206501	-0.0129114723	0.0693241057
-0.0151605062	-0.0127587534	0.103104572
0.0825642505	-0.0126702089	0.0693154183
-0.1131633694	0.0700559674	0.0453247944
-0.0152600831	0.0699299951	0.0788584626
0.0826557968	0.0702913226	0.0453049614

VECTORS	v 	float 
0.0	0.0	0.0
1.1219e-06	0.0	0.0
3.6931e-06	0.0	0.0
0.0	-3.19379e-05	0.0
-6.0941e-06	-4.67943e-05	0.0
-1.32875e-05	-3.39826e-05	0.0
0.0	-6.89722e-05	0.0
1.7772e-06	-8.92461e-05	0.0
6.8163e-06	-7.27936e-05	0.0
-0.0001650523	-0.0002024938	0.000127496
-3.9239e-06	-0.0002201493	8.101e-05
0.0001569142	-0.0002045942	0.0001271853
-0.0001664373	-4.0343e-05	0.0001051787
-1.5475e-06	-3.82384e-05	6.70851e-05
0.0001635005	-4.20279e-05	0.000106677
-0.0001641579	0.0001230434	0.0001268211
-2.3607e-06	0.0001422984	8.05312e-05
0.0001586215	0.000121645	0.0001266447
0.0003176285	0.0002706817	0.0002116495
-3.0847e-06	0.0002336651	-4.44514e-05
-0.0003239127	0.0002691083	0.0002118799
0.0002912256	-3.78861e-05	1.01103e-05
-3.2271e-06	-3.98533e-05	-0.0002384622
-0.0002975146	-3.96221e-05	1.09445e-05
0.0003193396	-0.000346892	0.0002106581
-1.8436e-06	-0.0003127822	-4.46565e-05
-0.0003228499	-0.0003486854	0.0002109027

VECTORS	a 	float 
0.0	0.0	0.0
0.8972071084	0.0	0.0
1.793757872	0.0	0.0
0.0	0.7178394545	0.0
0.8936186587	0.7137315896	0.0
1.7877937518	0.7177686091	0.0
0.0	1.4341838655	0.0
0.8980276947	1.4285461651	0.0
1.7957262146	1.4340455403	0.0
0.0034033172	0.0025316493	-3.0795481638
0.8949983759	-0.0008848668	-3.0828999723
1.7868302445	0.0019394045	-3.0797535336
0.0015168168	0.715676825	-3.0803269737
0.8960877316	0.7162926416	-3.0822733455
1.7904062967	0.7151446249	-3.0801176467
0.0036833162	1.4292258782	-3.0797855716
0.8953414239	1.4331281748	-3.0833714003
1.7871334346	1.4287526563	-3.0799450128
-0.0038791469	-0.0024185082	-6.15561336
0.8955979028	-0.0092038547	-6.1706441241
1.7950245487	-0.0028414885	-6.1559746737
-0.0118240889	0.7165219521	-6.1650219971
0.8954148143	0.7159843485	-6.1779532906
1.8027343075	0.7160472823	-6.1646507664
-0.0033721788	1.4353857821	-6.1561212756
0.8959763133	1.4412610252	-6.1707801251
1.7953344009	1.4348600842	-6.1564497483

SCALARS	theta	float 1
LOOKUP_TABLE	default
297.1748732925
297.1855090279
297.1746660998
297.167633548
297.1739279363
297.169793063
297.1797379515
297.1811935617
297.1787654979
302.0245774637
302.1553981845
302.0240052565
302.1071524182
302.2383479242
302.1065342377
302.0240235294
302.156665754
302.0241507017
319.4524266944
319.734282927
319.452668925
319.6344965198
319.9167338354
319.6347111978
319.4528274586
319.7340940542
319.452664944

SCALARS	sig_11	float	1
LOOKUP_TABLE	default
-4.3666706274
12.4480202741
-3.0758131391
7.7376462319
22.7402120868
7.202637459
-3.8188855296
10.4937081742
-3.8092182609
11.4246780227
20.5063852288
11.3408002963
19.1291877311
28.4038285462
19.1618240276
11.029926675
20.2990430442
11.0176329986
-53.2229235189
-49.0604284947
-53.2026338404
-48.9104601876
-44.6963338088
-48.9180060735
-53.1497751326
-49.0326708682
-53.1443351048

SCALARS	sig_22	float	1
LOOKUP_TABLE	default
-7.9567374324
7.6958513766
-6.8229897535
5.1695582983
18.0753763448
5.2571794269
-5.3554063685
5.2774858391
-5.2403533957
8.4403716456
14.7963819162
8.3771884106
16.5179064635
23.1366282532
16.5276083178
8.2047088894
14.927475844
8.2127870509
-41.0711003376
-38.0295967341
-41.0604041931
-36.3907568238
-33.3285745159
-36.3854885136
-40.98415455
-38.0808569468
-40.9916264796

SCALARS	sig_33	float	1
LOOKUP_TABLE	default
-0.4334859137
40.0405617658
0.28283027
28.1085410264
67.2366117807
27.9051024642
0.6600464164
38.9034649376
0.638232792
18.6917279493
46.9841352005
18.6223533532
40.5813401911
69.1177691159
40.5821828814
18.5613529862
47.0508803123
18.5421883489
-138.2236520299
-119.5959710661
-138.2680886674
-122.2096630655
-103.347661334
-122.1863848416
-138.2314917431
-119.5664706249
-138.2072867494

SCALARS vonMises	float	1
LOOKUP_TABLE	default
50.1973739515
39.3194091563
49.6284312404
45.6377943668
40.1869480589
45.9356145471
49.7273842215
41.1335337526
49.8718267387
85.2856607155
81.9840687122
85.4828276602
81.8156820137
76.546466689
81.7859212886
85.5884681619
81.7077745833
85.5922366869
118.3606200773
111.7470438305
118.4939611835
114.3797479427
108.0541280312
114.3402967373
118.5986706656
111.6398604667
118.5794187373
