# vtk DataFile Version 2.0
Results
ASCII
DATASET UNSTRUCTURED_GRID
POINTS         27           float
0.0	0.0	0.0	
50.0	0.0	0.0	
100.0	0.0	0.0	
0.0	40.0	0.0	
50.0	40.0	0.0	
100.0	40.0	0.0	
0.0	80.0	0.0	
50.0	80.0	0.0	
100.0	80.0	0.0	
0.0	0.0	70.0	
50.0	0.0	70.0	
100.0	0.0	70.0	
0.0	40.0	70.0	
50.0	40.0	70.0	
100.0	40.0	70.0	
0.0	80.0	70.0	
50.0	80.0	70.0	
100.0	80.0	70.0	
0.0	0.0	140.0	
50.0	0.0	140.0	
100.0	0.0	140.0	
0.0	40.0	140.0	
50.0	40.0	140.0	
100.0	40.0	140.0	
0.0	80.0	140.0	
50.0	80.0	140.0	
100.0	80.0	140.0	

CELLS	8	72
 8	0	1	4	3	9	10	13	12	
 8	1	2	5	4	10	11	14	13	
 8	4	5	8	7	13	14	17	16	
 8	3	4	7	6	12	13	16	15	
 8	9	10	13	12	18	19	22	21	
 8	10	11	14	13	19	20	23	22	
 8	13	14	17	16	22	23	26	25	
 8	12	13	16	15	21	22	25	24	

CELL_TYPES	8
 12
 12
 12
 12
 12
 12
 12
 12

POINT_DATA	27
VECTORS	u 	float 
0.0	0.0	0.0
-0.0099862103	0.0	0.0
-0.0196576927	0.0	0.0
0.0	-0.0052495909	0.0
-0.0100534658	-0.0052762278	0.0
-0.0203154254	-0.0049943892	0.0
0.0	-0.0092442147	0.0
-0.0102367071	-0.011592742	0.0
-0.0205284417	-0.0088920828	0.0
-0.0051390212	0.00268176	-0.026884611
-0.0099488664	0.0058076887	-0.0033885743
-0.014842763	0.0030327147	-0.0268959641
-0.0051932459	-0.0053446916	-0.011859749
-0.0100853352	-0.0052541923	0.0114461052
-0.0149306687	-0.0050440928	-0.0119107578
-0.0052842788	-0.0136622102	-0.0267792098
-0.0101989928	-0.0160288718	-0.0032972471
-0.0151071438	-0.0133633008	-0.0268219004
-0.1352161545	-0.1149817988	0.027727894
-0.0099390613	-0.1128348085	0.0800097079
0.1153826142	-0.1146956591	0.0276755016
-0.1350805517	-0.0054756846	0.0676820355
-0.0100496033	-0.0052830117	0.1201002615
0.1149595454	-0.0051667428	0.0676567539
-0.1355100738	0.1041685066	0.0277906632
-0.0101719512	0.102132891	0.0801332416
0.1151641327	0.1044691232	0.0277526722

VECTORS	v 	float 
0.0	0.0	0.0
-0.0001760642	0.0	0.0
-0.0003518157	0.0	0.0
0.0	-0.00022508	0.0
-0.0001863217	-0.0002301306	0.0
-0.0003727181	-0.0002257355	0.0
0.0	-0.0004579555	0.0
-0.0001713302	-0.0004547934	0.0
-0.0003417037	-0.0004594143	0.0
-0.0005586606	-0.0005916407	0.0001336363
-0.0001824373	-0.0006414114	7.58564e-05
0.0001941344	-0.0005947822	0.0001335446
-0.0005617638	-0.0002266515	0.0001222496
-0.0001786173	-0.0002265988	7.25214e-05
0.0002042967	-0.0002297131	0.0001227465
-0.0005567332	0.0001403768	0.0001325338
-0.0001804595	0.0001864902	7.3519e-05
0.0001958786	0.0001373401	0.000132524
0.0003873813	0.0003467967	0.0003899427
-0.0001808361	0.0002698746	-4.89874e-05
-0.0007488864	0.0003441548	0.000388921
0.000364397	-0.0002242998	1.82813e-05
-0.0001807233	-0.0002262714	-0.0004115196
-0.0007260812	-0.0002270469	1.96991e-05
0.0003899569	-0.0007961299	0.000388156
-0.0001785999	-0.0007217179	-5.04197e-05
-0.0007468028	-0.000798923	0.0003872678

VECTORS	a 	float 
0.0	0.0	0.0
0.895572265	0.0	0.0
1.7903861965	0.0	0.0
0.0	0.7169264221	0.0
0.8936891127	0.7159597258	0.0
1.7879897976	0.7171231675	0.0
0.0	1.4330320548	0.0
0.8962905142	1.4324332079	0.0
1.7918728204	1.4334058927	0.0
0.0020082289	0.0032626452	-3.0797944471
0.8944907528	0.0015409045	-3.0823687001
1.7872261666	0.0029712268	-3.0799003682
0.0005926583	0.7165645484	-3.080360641
0.8950881608	0.7166842665	-3.0829800324
1.7893540491	0.716270067	-3.0804122673
0.0021727203	1.4300938516	-3.0799213227
0.8946174282	1.4316753603	-3.0827525419
1.7872905737	1.4298047116	-3.0800090541
-0.0042519846	-0.0033421593	-6.1588638893
0.8948599437	-0.0048268378	-6.1639628386
1.7939468092	-0.0035570533	-6.1591973373
-0.0071299204	0.7169251657	-6.1616495439
0.8947713353	0.716727513	-6.1661460201
1.7967040548	0.7166852225	-6.1614468164
-0.0039890173	1.4371606466	-6.1591689777
0.8950741403	1.4382995229	-6.1641054818
1.7941286816	1.4368881308	-6.1594807955

SCALARS	theta	float 1
LOOKUP_TABLE	default
299.4084918364
299.3095178896
299.4002561527
299.3495928531
299.2451222
299.3535135072
299.4145261438
299.3067370302
299.4108783041
297.8610279624
297.9241464277
297.861113446
297.9802942116
298.0422015299
297.9788556073
297.8599970341
297.9270318333
297.8608686438
325.4780498355
325.7535924012
325.4785208569
325.8010552816
326.0774737826
325.8019267964
325.4793311639
325.7519973801
325.4786239625

SCALARS	sig_11	float	1
LOOKUP_TABLE	default
-45.4121173869
-24.2958872913
-44.1741973693
-31.6821790941
-12.421372432
-31.9729553765
-44.8636385376
-26.6319818561
-45.0865094113
41.8934125693
59.1467130307
41.8200817557
55.711681383
73.1298312484
55.7293730403
41.4414990057
58.8916918469
41.4423843061
-101.1358707181
-84.8842380581
-101.1273396056
-87.07848723
-70.7574406807
-87.081599718
-101.0554130927
-84.8395608986
-101.058287535

SCALARS	sig_22	float	1
LOOKUP_TABLE	default
-42.0626400644
-22.6324919221
-40.6841404185
-27.1687657125
-10.8709674028
-26.799168218
-39.0834814711
-25.4658510736
-38.8711194488
32.8393450459
44.8058485466
32.7956810446
47.0505300417
59.2795532074
47.0719465053
32.5706948825
44.9494298342
32.6013153057
-79.4306786689
-68.0545176066
-79.434495115
-64.6299915661
-53.2270256827
-64.6299564491
-79.3338491134
-68.1049480938
-79.353478564

SCALARS	sig_33	float	1
LOOKUP_TABLE	default
-57.1371455928
-9.1569611478
-56.3389061206
-25.8702568891
20.4532713944
-25.9605733725
-55.895556448
-10.5105382112
-55.9811801264
65.8546730454
112.9404884062
65.7805406552
102.844221154
150.0862991331
102.8291759454
65.7178968068
113.008518375
65.6883961074
-242.8358012258
-193.8297127648
-242.8952449993
-199.7273511339
-150.4655608641
-199.6980041539
-242.8429226884
-193.7841331992
-242.825403186

SCALARS vonMises	float	1
LOOKUP_TABLE	default
31.7113801083
37.7679689848
32.6148853606
26.1087693353
38.3674478134
26.21419214
34.4917868893
37.6328984402
34.5355692485
160.3560581197
141.3741523286
160.80389934
136.9218335589
112.6445725069
136.8740840688
161.1361367995
140.6162040532
161.0772797738
189.5825836457
171.2762436579
189.7088471912
178.7399145283
161.6504803821
178.7193144469
189.8520012825
171.1447084123
189.8111086085
