# vtk DataFile Version 2.0
Results
ASCII
DATASET UNSTRUCTURED_GRID
POINTS         27           float
0.0	0.0	0.0	
50.0	0.0	0.0	
100.0	0.0	0.0	
0.0	40.0	0.0	
50.0	40.0	0.0	
100.0	40.0	0.0	
0.0	80.0	0.0	
50.0	80.0	0.0	
100.0	80.0	0.0	
0.0	0.0	70.0	
50.0	0.0	70.0	
100.0	0.0	70.0	
0.0	40.0	70.0	
50.0	40.0	70.0	
100.0	40.0	70.0	
0.0	80.0	70.0	
50.0	80.0	70.0	
100.0	80.0	70.0	
0.0	0.0	140.0	
50.0	0.0	140.0	
100.0	0.0	140.0	
0.0	40.0	140.0	
50.0	40.0	140.0	
100.0	40.0	140.0	
0.0	80.0	140.0	
50.0	80.0	140.0	
100.0	80.0	140.0	

CELLS	8	72
 8	0	1	4	3	9	10	13	12	
 8	1	2	5	4	10	11	14	13	
 8	4	5	8	7	13	14	17	16	
 8	3	4	7	6	12	13	16	15	
 8	9	10	13	12	18	19	22	21	
 8	10	11	14	13	19	20	23	22	
 8	13	14	17	16	22	23	26	25	
 8	12	13	16	15	21	22	25	24	

CELL_TYPES	8
 12
 12
 12
 12
 12
 12
 12
 12

POINT_DATA	27
VECTORS	u 	float 
0.0	0.0	0.0
-0.0151010633	0.0	0.0
-0.0297592314	0.0	0.0
0.0	-0.0126536618	0.0
-0.0151287401	-0.0126867013	0.0
-0.03056861	-0.0124569318	0.0
0.0	-0.0242222873	0.0
-0.0152943228	-0.0262790531	0.0
-0.0304950416	-0.0239849634	0.0
-0.0264343637	-0.0205214274	-0.0190653135
-0.0150550636	-0.0187003288	0.0017865884
-0.0037853405	-0.0202423121	-0.019061218
-0.026343265	-0.0127319642	-0.0049655866
-0.0151711728	-0.012665966	0.0159210501
-0.0039240504	-0.012496915	-0.0049942317
-0.026534889	-0.0051936829	-0.0189810827
-0.0152517572	-0.0063858161	0.001854782
-0.0039962138	-0.0049587431	-0.0190086556
-0.1135581913	-0.0962921261	0.044893986
-0.0150616583	-0.0960697055	0.0787942063
0.0834882625	-0.0960704828	0.0448596525
-0.1135458484	-0.0128366227	0.0692801274
-0.0151431275	-0.0126830613	0.1034805974
0.083224366	-0.0125939429	0.0692711801
-0.1137943256	0.070737458	0.0449366638
-0.0152432092	0.0705889194	0.0788920451
0.0833203076	0.0709741926	0.0449165237

VECTORS	v 	float 
0.0	0.0	0.0
-2.0694e-06	0.0	0.0
-2.6144e-06	0.0	0.0
0.0	-3.55507e-05	0.0
-9.3022e-06	-5.04911e-05	0.0
-1.97623e-05	-3.76174e-05	0.0
0.0	-7.62163e-05	0.0
-1.4133e-06	-9.66226e-05	0.0
5.114e-07	-8.00854e-05	0.0
-0.0001725357	-0.0002103991	0.0001275573
-7.1315e-06	-0.0002284425	8.11202e-05
0.0001579652	-0.0002125149	0.0001272501
-0.0001738379	-4.4003e-05	0.0001055523
-4.747e-06	-4.18907e-05	6.76189e-05
0.0001645175	-4.57011e-05	0.0001070654
-0.0001716307	0.0001236329	0.0001268784
-5.555e-06	0.0001432808	8.06413e-05
0.0001596869	0.000122223	0.0001267047
0.0003196567	0.0002725652	0.0002158333
-6.2959e-06	0.0002347696	-4.46961e-05
-0.0003323586	0.0002709774	0.0002160721
0.0002931423	-4.15338e-05	1.03838e-05
-6.4342e-06	-4.35139e-05	-0.000242524
-0.0003058502	-4.32844e-05	1.12249e-05
0.0003213799	-0.000356073	0.0002148378
-5.044e-06	-0.0003212039	-4.49025e-05
-0.0003312852	-0.0003578806	0.0002150914

VECTORS	a 	float 
0.0	0.0	0.0
0.897155838	0.0	0.0
1.7936508878	0.0	0.0
0.0	0.7178121108	0.0
0.8936179615	0.713801283	0.0
1.7877951036	0.7177498598	0.0
0.0	1.4341490076	0.0
0.897974096	1.4286686149	0.0
1.79560613	1.4340271106	0.0
0.0033578838	0.0025567344	-3.0795537285
0.8949807531	-0.0008085338	-3.0828844602
1.7868413395	0.0019735006	-3.0797561254
0.0014849062	0.7157053834	-3.0803263911
0.8960555531	0.7163057977	-3.0822973708
1.7903742081	0.7151802267	-3.0801252761
0.0036344713	1.4292527511	-3.0797878635
0.8953172273	1.4330838288	-3.083353674
1.7871371709	1.4287849066	-3.0799451768
-0.0038900791	-0.0024466053	-6.1557137114
0.8955736119	-0.0090663032	-6.1704362505
1.7949876111	-0.0028633738	-6.1560745783
-0.0116791058	0.7165358601	-6.1649158691
0.8953933336	0.7160086156	-6.1775852805
1.8025449343	0.7160681969	-6.164549631
-0.0033903317	1.4354430418	-6.156215713
0.8959471821	1.4411698757	-6.1705726244
1.7952936931	1.4349248613	-6.1565440459

SCALARS	theta	float 1
LOOKUP_TABLE	default
297.2011115484
297.2099431195
297.2007626507
297.1927708093
297.1972682477
297.1949999152
297.2060195813
297.2056265807
297.2049866566
301.9391447943
302.0712074551
301.9385741262
302.0235684783
302.1559805713
302.0229272346
301.9385948417
302.0725002133
301.9387327381
319.5879229592
319.874806613
319.5881765284
319.7751173964
320.0623977355
319.7753455493
319.5883271335
319.8746045755
319.588158707

SCALARS	sig_11	float	1
LOOKUP_TABLE	default
-5.1244304402
11.7829159177
-3.8321147786
7.0258056474
22.1174356145
6.493181769
-4.5761200637
9.8199330713
-4.569640774
12.048042298
21.2529686475
11.9642835182
19.8513847649
29.2492543165
19.8839007784
11.6516704896
21.0446431971
11.6395835672
-54.1469755241
-49.8296818716
-54.1268820226
-49.694965812
-45.3257357591
-49.7024854319
-54.0735020651
-49.801689639
-54.0681966195

SCALARS	sig_22	float	1
LOOKUP_TABLE	default
-8.5939595724
7.143209316
-7.4544998347
4.5821295169
17.5621347256
4.6735578456
-5.983037133
4.7149028187
-5.8660375901
8.9380114791
15.3800088182
8.8751246132
17.1170746593
23.8222837765
17.1270093338
8.7013803567
15.5115230626
8.7098545688
-41.8099946104
-38.6612812099
-41.7995457396
-36.9802197025
-33.8106896476
-36.9750464572
-41.7227023346
-38.7126546965
-41.7303840168

SCALARS	sig_33	float	1
LOOKUP_TABLE	default
-1.4744052692
39.1928765093
-0.7554634683
27.1631860928
66.4777779095
26.9605828562
-0.3771711263
38.0509462295
-0.3996897569
19.636334911
48.2914777427
19.5669409143
41.822942188
70.7214618277
41.8236251551
19.5055234039
48.3583979661
19.4862411119
-140.3786597623
-121.2147508981
-140.4234588506
-123.871691389
-104.4726794642
-123.8483609874
-140.3863969026
-121.1850074241
-140.3622852191

SCALARS vonMises	float	1
LOOKUP_TABLE	default
49.0754469682
38.5688851543
48.5113469013
44.873020022
40.013596262
45.1700778341
48.6272173489
40.3960383101
48.7746622337
86.4148022736
83.021463549
86.6256114964
82.755978186
77.276258487
82.7242519074
86.7389736205
82.7325038695
86.7418107233
119.8936546796
113.0705073627
120.0271311078
115.7851117625
109.2659588905
115.7459439706
120.132492722
112.962763293
120.1129040954
