# vtk DataFile Version 2.0
Results
ASCII
DATASET UNSTRUCTURED_GRID
POINTS         27           float
0.0	0.0	0.0	
50.0	0.0	0.0	
100.0	0.0	0.0	
0.0	40.0	0.0	
50.0	40.0	0.0	
100.0	40.0	0.0	
0.0	80.0	0.0	
50.0	80.0	0.0	
100.0	80.0	0.0	
0.0	0.0	70.0	
50.0	0.0	70.0	
100.0	0.0	70.0	
0.0	40.0	70.0	
50.0	40.0	70.0	
100.0	40.0	70.0	
0.0	80.0	70.0	
50.0	80.0	70.0	
100.0	80.0	70.0	
0.0	0.0	140.0	
50.0	0.0	140.0	
100.0	0.0	140.0	
0.0	40.0	140.0	
50.0	40.0	140.0	
100.0	40.0	140.0	
0.0	80.0	140.0	
50.0	80.0	140.0	
100.0	80.0	140.0	

CELLS	8	72
 8	0	1	4	3	9	10	13	12	
 8	1	2	5	4	10	11	14	13	
 8	4	5	8	7	13	14	17	16	
 8	3	4	7	6	12	13	16	15	
 8	9	10	13	12	18	19	22	21	
 8	10	11	14	13	19	20	23	22	
 8	13	14	17	16	22	23	26	25	
 8	12	13	16	15	21	22	25	24	

CELL_TYPES	8
 12
 12
 12
 12
 12
 12
 12
 12

POINT_DATA	27
VECTORS	u 	float 
0.0	0.0	0.0
-0.0128649061	0.0	0.0
-0.0252914634	0.0	0.0
0.0	-0.0121241462	0.0
-0.0128773645	-0.0121560531	0.0
-0.026067636	-0.01196298	0.0
0.0	-0.0233148354	0.0
-0.0130232006	-0.0250935214	0.0
-0.0259195505	-0.0231344353	0.0
-0.0322439239	-0.0278193642	-0.0101995805
-0.012820464	-0.0264618196	0.0075515366
0.0064972509	-0.0275882217	-0.0101914753
-0.0321729948	-0.012189447	0.0021313337
-0.012919638	-0.0121373338	0.0199668995
0.0064102826	-0.0119955874	0.0021113656
-0.0323210573	0.0032235478	-0.0101303967
-0.0129828924	0.0023977074	0.0076054325
0.0063209	0.0034182538	-0.0101513888
-0.0931460049	-0.0791324314	0.0550031849
-0.0128307119	-0.0792918391	0.0778222268
0.0675348447	-0.0789500912	0.0549773399
-0.0932831585	-0.0122758916	0.0705917039
-0.0128961204	-0.0121480054	0.0937177817
0.067455087	-0.0120754664	0.0705881792
-0.0933428896	0.0546830254	0.0550342383
-0.0129802156	0.0548977739	0.0779018515
0.0673974959	0.0548785332	0.0550211915

VECTORS	v 	float 
0.0	0.0	0.0
5.30459e-05	0.0	0.0
0.00010242	0.0	0.0
0.0	4.588e-05	0.0
4.48934e-05	3.70158e-05	0.0
9.27959e-05	4.5354e-05	0.0
0.0	8.54634e-05	0.0
5.52965e-05	7.89727e-05	0.0
0.0001087615	8.46305e-05	0.0
-2.77751e-05	-2.11858e-05	0.0001215479
4.78505e-05	-2.9488e-05	7.46001e-05
0.0001245968	-2.31748e-05	0.000121142
-3.10911e-05	4.13908e-05	9.3704e-05
5.06593e-05	4.26992e-05	4.88643e-05
0.0001313569	3.96733e-05	9.41359e-05
-2.70437e-05	0.0001056056	0.0001206225
4.90793e-05	0.0001133372	7.33161e-05
0.0001257608	0.0001040855	0.0001204146
0.0002481412	0.0002100197	7.60054e-05
4.93488e-05	0.0002046818	-3.12802e-05
-0.0001498541	0.0002087521	7.52657e-05
0.0002356915	4.36594e-05	-2.2499e-06
4.89931e-05	4.20605e-05	-0.0001064781
-0.000137252	4.21718e-05	-1.4324e-06
0.0002497983	-0.0001231892	7.44272e-05
5.0459e-05	-0.000119995	-3.17675e-05
-0.0001489778	-0.0001248436	7.37739e-05

VECTORS	a 	float 
0.0	0.0	0.0
0.895841114	0.0	0.0
1.7900759596	0.0	0.0
0.0	0.7192380058	0.0
0.8902946618	0.713191815	0.0
1.7819486585	0.719133677	0.0
0.0	1.4356946254	0.0
0.8972114247	1.4284511755	0.0
1.7935197555	1.4354869416	0.0
-0.0002374891	0.0043249608	-3.0764685866
0.8924150637	-0.0013642298	-3.0835026696
1.7855906461	0.0033032365	-3.0767764428
-0.0037904702	0.7161228591	-3.0791750291
0.8941595134	0.7170233154	-3.0843782524
1.7915707062	0.7152145672	-3.0788810667
0.0001953515	1.428669996	-3.0768889803
0.8930097848	1.4347519003	-3.084339524
1.7861235291	1.4278756277	-3.0771128082
-0.0049738191	-0.0027928951	-6.1572847011
0.89337092	-0.0117866967	-6.177070844
1.7915662389	-0.0035000029	-6.1578616576
-0.0171060658	0.7174927025	-6.1690165265
0.8930967944	0.7166158174	-6.1859160717
1.803502497	0.7166815643	-6.1684404174
-0.0040742879	1.4376192709	-6.1581725673
0.8940124036	1.4452114299	-6.1773331249
1.7920787767	1.4367060012	-6.1586933392

SCALARS	theta	float 1
LOOKUP_TABLE	default
297.1575018914
297.2034032986
297.1600350442
297.1741802666
297.2149398651
297.1747729622
297.1619540611
297.1986288977
297.1618939407
303.9629663488
304.0412018029
303.9624542858
304.0016157137
304.0807818125
304.0015190119
303.9621035433
304.0419870745
303.9620971692
315.8599133769
315.9865450959
315.8599028091
315.9250158256
316.0517414842
315.9249689237
315.8603042678
315.9865398457
315.8602332335

SCALARS	sig_11	float	1
LOOKUP_TABLE	default
11.0623036225
25.1005110828
12.2412286502
21.5080502745
33.9241001734
20.9679044962
11.5596824119
23.4342967535
11.6262752074
-2.0633790248
4.344928559
-2.1446536885
3.291912803
9.8800834803
3.3240331595
-2.4028810477
4.1688301928
-2.4183432039
-31.7129891437
-30.3223564317
-31.6901739943
-30.3023265483
-28.8696358352
-30.3098404811
-31.6509268613
-30.3006034882
-31.6431858167

SCALARS	sig_22	float	1
LOOKUP_TABLE	default
5.299316381
18.3755349597
6.257052722
16.6236602416
27.3225342939
16.6406238163
7.5571270737
16.2960945511
7.6320901475
-2.2531137802
2.1947208721
-2.3181919244
3.3567831334
8.0409918182
3.3613196972
-2.4553279931
2.3103715715
-2.4551683142
-23.8709749121
-22.8090302398
-23.8561423086
-22.3767114488
-21.2991220411
-22.370055269
-23.7960498582
-22.8548141836
-23.7989500989

SCALARS	sig_33	float	1
LOOKUP_TABLE	default
20.4423248485
54.6712159408
21.0633406014
45.2981437477
78.3954585059
45.0954093666
21.3925886094
53.7006726869
21.3874284859
-1.691136038
17.865444138
-1.7570254692
12.9264037289
32.7215995364
12.9292127102
-1.8045109087
17.9254045479
-1.8208644577
-86.4878519127
-79.3169633501
-86.5225365717
-81.2970140199
-73.9226853719
-81.2759008762
-86.4980742837
-79.2934840101
-86.4730614336

SCALARS vonMises	float	1
LOOKUP_TABLE	default
70.9247097414
53.5315408951
70.332448337
59.1229707624
42.1887814027
59.4199077906
70.2265030476
55.0195866936
70.3178758862
63.8332565834
59.6127917845
63.7771837779
61.3531495226
58.3438834853
61.3772841943
63.7623686898
59.6577228304
63.7729147547
80.2282798669
78.1023499755
80.350566737
79.0713796636
76.9520722822
79.0287423364
80.4371716013
78.0132949046
80.4250311274
