# vtk DataFile Version 2.0
Results
ASCII
DATASET UNSTRUCTURED_GRID
POINTS         27           float
0.0	0.0	0.0	
50.0	0.0	0.0	
100.0	0.0	0.0	
0.0	40.0	0.0	
50.0	40.0	0.0	
100.0	40.0	0.0	
0.0	80.0	0.0	
50.0	80.0	0.0	
100.0	80.0	0.0	
0.0	0.0	70.0	
50.0	0.0	70.0	
100.0	0.0	70.0	
0.0	40.0	70.0	
50.0	40.0	70.0	
100.0	40.0	70.0	
0.0	80.0	70.0	
50.0	80.0	70.0	
100.0	80.0	70.0	
0.0	0.0	140.0	
50.0	0.0	140.0	
100.0	0.0	140.0	
0.0	40.0	140.0	
50.0	40.0	140.0	
100.0	40.0	140.0	
0.0	80.0	140.0	
50.0	80.0	140.0	
100.0	80.0	140.0	

CELLS	8	72
 8	0	1	4	3	9	10	13	12	
 8	1	2	5	4	10	11	14	13	
 8	4	5	8	7	13	14	17	16	
 8	3	4	7	6	12	13	16	15	
 8	9	10	13	12	18	19	22	21	
 8	10	11	14	13	19	20	23	22	
 8	13	14	17	16	22	23	26	25	
 8	12	13	16	15	21	22	25	24	

CELL_TYPES	8
 12
 12
 12
 12
 12
 12
 12
 12

POINT_DATA	27
VECTORS	u 	float 
0.0	0.0	0.0
0.0032002914	0.0	0.0
0.0064804411	0.0	0.0
0.0	0.0080992937	0.0
0.0031030926	0.0080461199	0.0
0.0061549212	0.0083502725	0.0
0.0	0.0172587912	0.0
0.0029450306	0.0152332142	0.0
0.0056841199	0.0176578802	0.0
0.0214865318	0.02828632	-0.0268144923
0.0032137555	0.0324841378	-0.0087871127
-0.0150867536	0.028624804	-0.026844901
0.021565081	0.0079843047	-0.0159764571
0.0030911224	0.008086114	0.001510226
-0.0153769826	0.0082835534	-0.0160468217
0.021328429	-0.0125673339	-0.026720165
0.0029687121	-0.0160635579	-0.0086791658
-0.0153466477	-0.0122721049	-0.0267703547
-0.1086134214	-0.0931702036	-0.0033869486
0.0032456079	-0.0882970319	0.0491282956
0.1151253287	-0.0928814626	-0.0034498393
-0.1077681976	0.0078601219	0.0384781796
0.0031300422	0.0080436784	0.0907510307
0.1140243598	0.0081635248	0.0384380332
-0.1088982413	0.1090079288	-0.0033091536
0.0030134976	0.104265417	0.0492460469
0.1149082917	0.1093021318	-0.0033626754

VECTORS	v 	float 
0.0	0.0	0.0
-0.0023366299	0.0	0.0
-0.0046680508	0.0	0.0
0.0	-0.0018376973	0.0
-0.002328456	-0.0018286317	0.0
-0.0046607523	-0.0018348895	0.0
0.0	-0.0036587327	0.0
-0.0023411037	-0.0036707514	0.0
-0.0046817471	-0.0036546883	0.0
-2.67309e-05	5.46822e-05	0.0074150902
-0.0023308146	9.41614e-05	0.0076637831
-0.0046364277	5.97399e-05	0.0074152983
-2.49248e-05	-0.0018338489	0.0075684077
-0.0023348556	-0.0018342728	0.0078126056
-0.0046435827	-0.0018294873	0.0075674566
-2.88308e-05	-0.0037263674	0.0074165496
-0.0023342113	-0.0037588649	0.0076661011
-0.0046398744	-0.0037222324	0.0074164243
-0.0013748492	-0.0011713942	0.0156232409
-0.0023321083	-0.0011364912	0.0162045427
-0.0032887208	-0.0011673466	0.0156234249
-0.0013589442	-0.0018372178	0.0160601293
-0.0023328399	-0.0018340025	0.0166385933
-0.0033072485	-0.0018327767	0.016059053
-0.0013793339	-0.0025014976	0.0156250676
-0.002335564	-0.0025331224	0.0162062013
-0.003291813	-0.0024969676	0.0156254098

VECTORS	a 	float 
0.0	0.0	0.0
-0.6230133009	0.0	0.0
-1.2457340184	0.0	0.0
0.0	-0.498888232	0.0
-0.6220898754	-0.4979561563	0.0
-1.2444262154	-0.4988902835	0.0
0.0	-0.9973599182	0.0
-0.6232294912	-0.9962199406	0.0
-1.2462702594	-0.9973606332	0.0
-0.0031109893	-0.0034258953	2.1415882084
-0.6224490183	-0.0028755992	2.1422291254
-1.241879467	-0.0032754565	2.1416319853
-0.0028225905	-0.4984117489	2.1416210785
-0.6227303033	-0.4985522625	2.1421273586
-1.2425419416	-0.4982787354	2.1415852117
-0.0031725897	-0.9935109671	2.1416343372
-0.6225322366	-0.9941300661	2.1423791525
-1.2419500109	-0.9933983154	2.1416732386
0.0050956032	0.0041401974	4.2801332152
-0.6226083331	0.0049031618	4.2810989538
-1.250287467	0.0042391613	4.2802306786
0.0064292277	-0.4986223607	4.279845918
-0.6225584591	-0.4984958722	4.2804990952
-1.2515821592	-0.4985053267	4.2797547544
0.0049550039	-1.001368825	4.2802696431
-0.62270507	-1.0019181964	4.2811363235
-1.2503600821	-1.0012319505	4.2803643156

SCALARS	theta	float 1
LOOKUP_TABLE	default
302.7794114456
302.5005306507
302.7643194606
302.6657931572
302.4201438024
302.6623851458
302.7519393711
302.5326327156
302.7549829239
294.705501235
294.3689830637
294.7076931591
294.4932003273
294.1520459879
294.4934960928
294.7119421747
294.3656068785
294.7115250151
323.7449228262
323.2583387983
323.7449220347
323.404167019
322.9175185988
323.4039771646
323.7432102703
323.2586646529
323.7432968416

SCALARS	sig_11	float	1
LOOKUP_TABLE	default
-78.6521926177
-56.9806261289
-77.7808770617
-65.6838868586
-45.9514109061
-65.5461345353
-77.8732274368
-59.5308431984
-78.3931099134
54.4570936544
81.0484220624
54.397974105
77.4574134914
104.0728020619
77.4437313455
54.0360691474
80.8270138577
54.0552649523
-130.3572656893
-95.0659298952
-130.358654684
-97.4141976345
-62.0462752802
-97.4012167995
-130.2613305611
-95.0299701406
-130.2799088794

SCALARS	sig_22	float	1
LOOKUP_TABLE	default
-68.5957363993
-49.0576049911
-67.2839657538
-54.494612584
-38.1237812937
-53.7926033583
-65.6662106282
-51.909810013
-65.475946462
42.3694760119
61.3410044956
42.3438539295
66.0979131233
85.1985544836
66.1188031478
42.1106950346
61.4837325769
42.1618630058
-105.2169827627
-79.475476808
-105.2335771576
-70.5991195227
-44.8229272061
-70.5948939785
-105.11296818
-79.5284143958
-105.1501249312

SCALARS	sig_33	float	1
LOOKUP_TABLE	default
-116.9171393719
-74.6241758646
-116.2152325413
-91.2533385727
-51.1175292347
-91.0973816911
-115.4494923452
-76.2404206946
-115.68852939
76.0024233662
132.5146146953
75.9165173101
123.5340116118
179.9558147673
123.4889066608
75.8774462247
132.5903816568
75.8421774184
-293.6053848705
-218.8565772794
-293.654506487
-223.5503338772
-148.6016112668
-223.504625308
-293.5687534948
-218.8402285891
-293.5731496601

SCALARS vonMises	float	1
LOOKUP_TABLE	default
104.9920362034
89.379989954
105.5888665099
77.214392399
50.3735109171
77.3184316651
106.5498192199
88.2464863231
106.3872291162
199.6079010215
164.6158259412
199.9332410473
159.0857387157
112.2873729073
159.1211565029
200.2364136801
163.8129432356
200.1326256001
206.2146438732
178.2284277819
206.2927433257
188.3948809274
161.4877517052
188.3917629521
206.4454940908
178.1079246428
206.3913823406
