# vtk DataFile Version 2.0
Results
ASCII
DATASET UNSTRUCTURED_GRID
POINTS         27           float
0.0	0.0	0.0	
50.0	0.0	0.0	
100.0	0.0	0.0	
0.0	40.0	0.0	
50.0	40.0	0.0	
100.0	40.0	0.0	
0.0	80.0	0.0	
50.0	80.0	0.0	
100.0	80.0	0.0	
0.0	0.0	70.0	
50.0	0.0	70.0	
100.0	0.0	70.0	
0.0	40.0	70.0	
50.0	40.0	70.0	
100.0	40.0	70.0	
0.0	80.0	70.0	
50.0	80.0	70.0	
100.0	80.0	70.0	
0.0	0.0	140.0	
50.0	0.0	140.0	
100.0	0.0	140.0	
0.0	40.0	140.0	
50.0	40.0	140.0	
100.0	40.0	140.0	
0.0	80.0	140.0	
50.0	80.0	140.0	
100.0	80.0	140.0	

CELLS	8	72
 8	0	1	4	3	9	10	13	12	
 8	1	2	5	4	10	11	14	13	
 8	4	5	8	7	13	14	17	16	
 8	3	4	7	6	12	13	16	15	
 8	9	10	13	12	18	19	22	21	
 8	10	11	14	13	19	20	23	22	
 8	13	14	17	16	22	23	26	25	
 8	12	13	16	15	21	22	25	24	

CELL_TYPES	8
 12
 12
 12
 12
 12
 12
 12
 12

POINT_DATA	27
VECTORS	u 	float 
0.0	0.0	0.0
-0.0133322123	0.0	0.0
-0.0262740372	0.0	0.0
0.0	-0.0096511199	0.0
-0.0133787738	-0.0096793381	0.0
-0.0270249831	-0.0094257485	0.0
0.0	-0.0181282639	0.0
-0.0135525488	-0.0203358521	0.0
-0.0270772936	-0.017836692	0.0
-0.0165892876	-0.0096118087	-0.0237564245
-0.0132898358	-0.0072299357	-0.0013255504
-0.0100901528	-0.0092972952	-0.0237590372
-0.0165571665	-0.0097365599	-0.0090059027
-0.0134161746	-0.0096589705	0.0133685927
-0.0102122464	-0.0094698589	-0.0090445273
-0.0167110231	-0.0101326542	-0.0236614392
-0.0135126177	-0.0118211002	-0.0012467278
-0.0103269389	-0.0098669205	-0.0236959584
-0.1259501523	-0.1068554356	0.0360187109
-0.0132894134	-0.1058701994	0.079474153
0.0994217244	-0.1066028486	0.035975939
-0.1258711696	-0.0098541602	0.0683803921
-0.0133847189	-0.0096815441	0.1120760343
0.0990721676	-0.0095791914	0.0683642402
-0.1262146428	0.0872753212	0.0360708554
-0.0134958128	0.0863819889	0.079584733
0.0992292627	0.087543341	0.0360425886

VECTORS	v 	float 
0.0	0.0	0.0
-9.57036e-05	0.0	0.0
-0.0001890644	0.0	0.0
0.0	-0.0001330229	0.0
-9.06593e-05	-0.000125791	0.0
-0.000183254	-0.0001335737	0.0
0.0	-0.0002669783	0.0
-9.55045e-05	-0.0002508006	0.0
-0.000188882	-0.0002680888	0.0
-0.0003685521	-0.0003973307	0.0001249746
-9.27435e-05	-0.0004149578	8.48225e-05
0.0001825315	-0.000397691	0.0001255192
-0.0003639635	-0.0001286463	0.0001119766
-9.37593e-05	-0.0001302152	7.21718e-05
0.000177094	-0.0001290257	0.0001118514
-0.0003681782	0.000140188	0.0001249915
-9.23928e-05	0.0001543175	8.48421e-05
0.0001828735	0.0001397275	0.0001254411
0.0003578109	0.0003074764	0.0002886309
-9.37016e-05	0.0002868577	2.3313e-06
-0.0005450203	0.0003069598	0.0002892204
0.0003680933	-0.0001294729	4.22619e-05
-9.29843e-05	-0.0001292635	-0.0002453022
-0.0005543832	-0.0001299559	4.20547e-05
0.0003581422	-0.0005666369	0.0002889778
-9.32969e-05	-0.0005451778	1.9561e-06
-0.0005445394	-0.00056703	0.0002895147

VECTORS	a 	float 
0.0	0.0	0.0
-0.8962015918	0.0	0.0
-1.7916605375	0.0	0.0
0.0	-0.7173003044	0.0
-0.8935997298	-0.7150843583	0.0
-1.7878092784	-0.717396797	0.0
0.0	-1.4334920636	0.0
-0.8969769442	-1.4309214376	0.0
-1.7933735333	-1.433673727	0.0
-0.0025051393	-0.0030081929	3.0796567315
-0.8946492279	-0.0005899243	3.0825974542
-1.7870477042	-0.0025913989	3.0798041288
-0.0008823203	-0.7162276797	3.0803155911
-0.8954548166	-0.7165431791	3.082741451
-1.7897818696	-0.7158325815	3.080266196
-0.002718678	-1.4297503292	3.0798301895
-0.8948642511	-1.4322649922	3.0830255927
-1.787207655	-1.429381803	3.0799481092
0.0040904413	0.0029640523	6.1575634883
-0.8951184124	0.006520945	6.1665903593
-1.7942907437	0.0032664133	6.1579160504
0.0089950251	-0.7167871779	6.1629522971
-0.8949904143	-0.7164513877	6.1707833291
-1.7990284356	-0.7164485455	6.1626783474
0.0037238785	-1.4364879055	6.1579560006
-0.8954029417	-1.4394703973	6.1667337942
-1.7945275971	-1.4361083256	6.1582818396

SCALARS	theta	float 1
LOOKUP_TABLE	default
298.1271120372
298.0878831893
298.1229856503
298.0927444219
298.0486486131
298.096402111
298.1333538339
298.0834039981
298.130702403
299.8904398748
300.0215503726
299.8900462598
300.0109134134
300.1417504433
300.0097630018
299.8897238193
300.0236161426
299.8902181813
322.6212885245
322.9705620601
322.6217496503
322.9158215453
323.2658186789
322.9163916832
322.6219659687
322.9698407374
322.6215762749

SCALARS	sig_11	float	1
LOOKUP_TABLE	default
-24.4176125485
-5.466904038
-23.1300782038
-11.4211073546
5.6791833551
-11.8625605312
-23.8744612521
-7.6087937258
-23.9610882934
27.1504634454
39.7636130449
27.0715851188
37.5101593998
50.3085531915
37.5374556648
26.7233870879
39.5333244967
26.7169783171
-76.7156269727
-67.6496863575
-76.7009639851
-68.3768879112
-59.2518882164
-68.3832097861
-76.6370493248
-67.6150148082
-76.6352149828

SCALARS	sig_22	float	1
LOOKUP_TABLE	default
-24.6780316114
-7.1166642455
-23.4166404045
-10.5851342154
4.0219589236
-10.3817637732
-21.8824325671
-9.7452021465
-21.7156034533
21.038279643
29.8212518254
20.9845786603
31.7923230095
40.8429220425
31.8080852235
20.783732517
29.9599980438
20.8024664854
-59.8332443083
-53.4314657261
-59.8293222096
-50.934981111
-44.5099603301
-50.9326013446
-59.7400427881
-53.4836208805
-59.7528428695

SCALARS	sig_33	float	1
LOOKUP_TABLE	default
-28.1023584492
16.461028811
-27.335963772
2.13313836
45.2022923511
1.9674012102
-26.9389240011
15.2217677138
-26.9819689573
42.7250875122
80.2007821426
42.6552294323
71.9947560246
109.6837005714
71.9897617224
42.5884592628
80.2698863041
42.5653549372
-191.3603138712
-158.3757213441
-191.4127591053
-162.4642602508
-129.231919039
-162.4395777383
-191.366913677
-158.3391465434
-191.3452375482

SCALARS vonMises	float	1
LOOKUP_TABLE	default
22.133933397
24.3689980428
21.9384955477
26.3980891098
36.4221646098
26.6778800602
23.2210600055
26.1308624497
23.4990545574
119.78852696
110.2416571925
120.1801673248
107.8010335684
94.6871024721
107.7451211935
120.4453199814
109.7030293403
120.4218615672
155.3276334148
143.1213553801
155.4602229139
148.0346817197
136.5702452968
148.0040042342
155.581949084
143.0019275111
155.5530630728
