# vtk DataFile Version 2.0
Results
ASCII
DATASET UNSTRUCTURED_GRID
POINTS         27           float
0.0	0.0	0.0	
50.0	0.0	0.0	
100.0	0.0	0.0	
0.0	40.0	0.0	
50.0	40.0	0.0	
100.0	40.0	0.0	
0.0	80.0	0.0	
50.0	80.0	0.0	
100.0	80.0	0.0	
0.0	0.0	70.0	
50.0	0.0	70.0	
100.0	0.0	70.0	
0.0	40.0	70.0	
50.0	40.0	70.0	
100.0	40.0	70.0	
0.0	80.0	70.0	
50.0	80.0	70.0	
100.0	80.0	70.0	
0.0	0.0	140.0	
50.0	0.0	140.0	
100.0	0.0	140.0	
0.0	40.0	140.0	
50.0	40.0	140.0	
100.0	40.0	140.0	
0.0	80.0	140.0	
50.0	80.0	140.0	
100.0	80.0	140.0	

CELLS	8	72
 8	0	1	4	3	9	10	13	12	
 8	1	2	5	4	10	11	14	13	
 8	4	5	8	7	13	14	17	16	
 8	3	4	7	6	12	13	16	15	
 8	9	10	13	12	18	19	22	21	
 8	10	11	14	13	19	20	23	22	
 8	13	14	17	16	22	23	26	25	
 8	12	13	16	15	21	22	25	24	

CELL_TYPES	8
 12
 12
 12
 12
 12
 12
 12
 12

POINT_DATA	27
VECTORS	u 	float 
0.0	0.0	0.0
-0.0079633997	0.0	0.0
-0.0156550218	0.0	0.0
0.0	-0.0027429759	0.0
-0.0080455086	-0.0027689438	0.0
-0.016267618	-0.002470546	0.0
0.0	-0.0041901952	0.0
-0.0082297097	-0.0066092479	0.0
-0.0165613265	-0.0038022541	0.0
0.0009260262	0.0091141628	-0.0281193202
-0.0079308336	0.0126793834	-0.0041902483
-0.0168622537	0.0094851285	-0.0281357714
0.0008436701	-0.0028432467	-0.0130132475
-0.0080719602	-0.0027456727	0.0106374374
-0.0169497368	-0.0025237692	-0.0130722656
0.0007679094	-0.0151021725	-0.028008814
-0.0081962597	-0.0178726639	-0.0040916519
-0.0171426324	-0.0147849246	-0.0280561206
-0.1391706207	-0.1185285971	0.0237829123
-0.007914634	-0.1156562108	0.080243668
0.1233825768	-0.1182234031	0.0237242568
-0.1389618066	-0.0029816663	0.0673842353
-0.0080339868	-0.0027777522	0.1239093265
0.1228759797	-0.0026537946	0.0673538746
-0.1394811309	0.1127086614	0.0238518984
-0.0081623667	0.1099588556	0.0803737172
0.1231498339	0.1130273643	0.0238075511

VECTORS	v 	float 
0.0	0.0	0.0
-0.0002264726	0.0	0.0
-0.0004491503	0.0	0.0
0.0	-0.0002738798	0.0
-0.000228265	-0.0002770762	0.0
-0.0004592548	-0.000275352	0.0
0.0	-0.0005532583	0.0
-0.0002232658	-0.0005502965	0.0
-0.0004424648	-0.0005564329	0.0
-0.000661748	-0.0006937423	0.0001209263
-0.000227936	-0.0007430237	7.9733e-05
0.0002052107	-0.0006964403	0.0001211482
-0.0006609002	-0.0002748441	0.0001157112
-0.0002262865	-0.0002750839	8.58827e-05
0.0002089504	-0.000277473	0.0001166156
-0.0006599733	0.0001455168	0.0001200705
-0.0002260459	0.0001915197	7.82745e-05
0.0002070654	0.0001429267	0.0001202808
0.0003961703	0.0003581374	0.000393436
-0.0002279829	0.0002760734	-4.11555e-05
-0.0008517344	0.0003555858	0.0003933057
0.0003834843	-0.0002731993	1.00266e-05
-0.0002271654	-0.0002749015	-0.0004130592
-0.0008382659	-0.0002757512	1.11569e-05
0.000398456	-0.0009051319	0.0003920997
-0.0002259246	-0.0008252609	-4.20509e-05
-0.0008497878	-0.0009076327	0.0003920269

VECTORS	a 	float 
0.0	0.0	0.0
0.8955716058	0.0	0.0
1.7904830811	0.0	0.0
0.0	0.716916294	0.0
0.8939017989	0.7159831275	0.0
1.7883371703	0.7170796832	0.0
0.0	1.433105506	0.0
0.8961931044	1.4324259446	0.0
1.7917791533	1.433415258	0.0
0.0021009195	0.0031559487	-3.0801050056
0.8946088607	0.0017106392	-3.082272511
1.787336724	0.0028962407	-3.08019871
0.000921362	0.7165474938	-3.0805448545
0.8951373654	0.7166670585	-3.0827331562
1.7891517768	0.7162876021	-3.0805821079
0.00224498	1.4301406419	-3.080215028
0.8947236621	1.4314858923	-3.0826089935
1.787398087	1.4298881515	-3.080293716
-0.0040810559	-0.0032290004	-6.1589086441
0.8949331957	-0.0044871437	-6.1631145637
1.7939241919	-0.0034198588	-6.1591976678
-0.0065736274	0.7168741668	-6.1610411403
0.8948542147	0.7166941001	-6.1647019196
1.7963124032	0.7166603629	-6.1608612196
-0.0038448541	1.4369500871	-6.1591792435
0.8951235867	1.4378918225	-6.1632350462
1.794084589	1.436706631	-6.1594501797

SCALARS	theta	float 1
LOOKUP_TABLE	default
300.1305058768
299.9948580924
300.1204711837
300.0597599276
299.9197891912
300.0626841063
300.134165937
299.9951364119
300.1310559419
296.8666513339
296.8667814545
296.8670235277
296.9573491829
296.9556664041
296.9560482512
296.8658533986
296.8697452797
296.8666983025
326.9046665396
327.0807314665
326.9051450863
327.1818430357
327.3586643087
327.1826825644
326.9061555487
327.0787378123
326.9054266675

SCALARS	sig_11	float	1
LOOKUP_TABLE	default
-56.4894913958
-34.0502874823
-55.2724530169
-42.25011806
-21.7073965239
-42.4576497677
-55.912672475
-36.5319229241
-56.213116562
48.8441237169
69.0250146107
48.771729209
65.0114000167
85.3446534235
65.0237252103
48.377072078
68.7570478909
48.3815565198
-114.4710720045
-93.4966383133
-114.4647715466
-96.3951302514
-75.346814128
-96.3962259844
-114.3879116561
-93.4469728936
-114.3932642838

SCALARS	sig_22	float	1
LOOKUP_TABLE	default
-51.2493396864
-30.6925737255
-49.8050466164
-35.7988610135
-18.5035864409
-35.3331985534
-48.1401836452
-33.6685500384
-47.9089806281
38.346436255
52.352800273
38.3065650051
54.9529150414
69.21821276
54.977101544
38.0683363245
52.5009353927
38.1052700591
-90.2802477167
-75.5554261979
-90.2871409207
-71.2840786623
-56.5319725362
-71.285138915
-90.1800779034
-75.6058547393
-90.2032255065

SCALARS	sig_33	float	1
LOOKUP_TABLE	default
-72.4338859214
-22.6021496107
-71.6153070007
-40.564976849
7.4810174383
-40.6086847164
-71.118925897
-24.050486097
-71.2344102441
77.0869193039
129.4617291091
77.0083296696
118.5181895956
171.0118181713
118.4967435145
76.9499674146
129.5310949276
76.9167697701
-269.3306725941
-211.3217432745
-269.3918398418
-217.9645713437
-159.7009935815
-217.9324557137
-269.3356044953
-211.2736429295
-269.3198480427

SCALARS vonMises	float	1
LOOKUP_TABLE	default
50.2694097079
51.4577118424
51.1315830325
37.5070609757
42.0508003215
37.5521042459
52.6772627909
50.8136976393
52.6159644167
181.8923788694
157.8276043275
182.3372392993
152.6016099108
121.9338642422
152.5694738298
182.6814107424
156.9913238202
182.6006253684
206.5319500701
184.9506879588
206.6550140208
193.7111202278
173.5793088532
193.6950954429
206.8104672078
184.8129605422
206.7626576808
