# vtk DataFile Version 2.0
Results
ASCII
DATASET UNSTRUCTURED_GRID
POINTS         27           float
0.0	0.0	0.0	
50.0	0.0	0.0	
100.0	0.0	0.0	
0.0	40.0	0.0	
50.0	40.0	0.0	
100.0	40.0	0.0	
0.0	80.0	0.0	
50.0	80.0	0.0	
100.0	80.0	0.0	
0.0	0.0	70.0	
50.0	0.0	70.0	
100.0	0.0	70.0	
0.0	40.0	70.0	
50.0	40.0	70.0	
100.0	40.0	70.0	
0.0	80.0	70.0	
50.0	80.0	70.0	
100.0	80.0	70.0	
0.0	0.0	140.0	
50.0	0.0	140.0	
100.0	0.0	140.0	
0.0	40.0	140.0	
50.0	40.0	140.0	
100.0	40.0	140.0	
0.0	80.0	140.0	
50.0	80.0	140.0	
100.0	80.0	140.0	

CELLS	8	72
 8	0	1	4	3	9	10	13	12	
 8	1	2	5	4	10	11	14	13	
 8	4	5	8	7	13	14	17	16	
 8	3	4	7	6	12	13	16	15	
 8	9	10	13	12	18	19	22	21	
 8	10	11	14	13	19	20	23	22	
 8	13	14	17	16	22	23	26	25	
 8	12	13	16	15	21	22	25	24	

CELL_TYPES	8
 12
 12
 12
 12
 12
 12
 12
 12

POINT_DATA	27
VECTORS	u 	float 
0.0	0.0	0.0
-0.0150454463	0.0	0.0
-0.0296510356	0.0	0.0
0.0	-0.0124797222	0.0
-0.0150746108	-0.0125124716	0.0
-0.0304576562	-0.0122804514	0.0
0.0	-0.023865599	0.0
-0.0152411307	-0.0259377398	0.0
-0.0303933591	-0.0236237062	0.0
-0.0256794909	-0.0196623339	-0.0195727716
-0.014999621	-0.0177986654	0.0014514699
-0.0044288462	-0.0193799804	-0.0195691654
-0.0255908256	-0.0125587428	-0.005390301
-0.0151167391	-0.0124917242	0.0156623648
-0.0045683911	-0.0123208503	-0.0054197287
-0.0257818362	-0.0057083031	-0.0194875418
-0.0151986694	-0.0069369348	0.0015206246
-0.004642056	-0.0054706001	-0.0195156774
-0.1148293697	-0.0973658184	0.0440923317
-0.0150057278	-0.0970928294	0.0788613552
0.0848712083	-0.0971414299	0.044057302
-0.114808221	-0.0126645874	0.0691907389
-0.0150883902	-0.0125093013	0.1042565531
0.0845965697	-0.0124190027	0.069181241
-0.1150680995	0.0721561483	0.0441358517
-0.0151895003	0.0719585715	0.078960382
0.0847010794	0.0723957102	0.0441150671

VECTORS	v 	float 
0.0	0.0	0.0
-8.7614e-06	0.0	0.0
-1.58401e-05	0.0	0.0
0.0	-4.31149e-05	0.0
-1.60287e-05	-5.82308e-05	0.0
-3.33383e-05	-4.52283e-05	0.0
0.0	-9.13863e-05	0.0
-8.1026e-06	-0.0001120644	0.0
-1.27065e-05	-9.53567e-05	0.0
-0.0001881621	-0.0002268841	0.0001276405
-1.38573e-05	-0.0002457664	8.13106e-05
0.0001601036	-0.0002290329	0.000127341
-0.0001892823	-5.16658e-05	0.0001062922
-1.14557e-05	-4.95376e-05	6.87029e-05
0.0001665771	-5.33925e-05	0.0001078365
-0.0001872342	0.000124802	0.000126953
-1.22522e-05	0.0001452974	8.08308e-05
0.0001618563	0.0001233673	0.0001267853
0.0003237629	0.0002764256	0.0002245055
-1.30294e-05	0.0002369518	-4.51931e-05
-0.0003499221	0.0002748066	0.0002247625
0.0002970295	-4.91703e-05	1.09373e-05
-1.31589e-05	-5.11781e-05	-0.0002509419
-0.0003231969	-5.09524e-05	1.17931e-05
0.0003255124	-0.0003752113	0.0002235014
-1.17544e-05	-0.0003387058	-4.54028e-05
-0.0003488259	-0.0003770495	0.0002237742

VECTORS	a 	float 
0.0	0.0	0.0
0.8970532993	0.0	0.0
1.7934369254	0.0	0.0
0.0	0.7177574296	0.0
0.8936165698	0.7139406732	0.0
1.7877978126	0.7177123642	0.0
0.0	1.4340793021	0.0
0.8978669031	1.4289135208	0.0
1.7953659682	1.433990258	0.0
0.0032670236	0.0026069144	-3.0795648604
0.89494551	-0.000655859	-3.082853436
1.7868635266	0.002041699	-3.0797613108
0.0014210916	0.7157625061	-3.0803252268
0.8959912003	0.7163321157	-3.0823454209
1.7903100313	0.7152514331	-3.0801405341
0.0035367889	1.429306497	-3.0797924478
0.8952688387	1.4329951379	-3.0833182197
1.787144644	1.4288494053	-3.0799455039
-0.0039119515	-0.0025028048	-6.1559144166
0.895525029	-0.0087912012	-6.1700204997
1.7949137415	-0.0029071566	-6.1562743883
-0.0113891448	0.7165636822	-6.1647036102
0.895350375	0.7160571537	-6.1768492554
1.8021661964	0.7161100242	-6.1643473577
-0.0034266403	1.4355575769	-6.1564045886
0.8958889257	1.4409875823	-6.1701576221
1.79521229	1.4350544253	-6.1567326424

SCALARS	theta	float 1
LOOKUP_TABLE	default
297.2597468548
297.2647753196
297.2590984103
297.2491155702
297.2498166718
297.2514884237
297.2647510471
297.2604521279
297.2635885406
301.7615121084
301.8958473109
301.7609460103
301.8497286602
301.9843605481
301.8490396528
301.7609675423
301.8971941233
301.7611290471
319.8663279177
320.1631009045
319.8666046317
320.064098632
320.3613008457
320.06435515
319.8667407711
320.1628697017
319.8665592296

SCALARS	sig_11	float	1
LOOKUP_TABLE	default
-6.7138616067
10.3825239424
-5.4190727261
5.5278330066
20.8018004268
5.0005804187
-6.1647459075
8.4020554385
-6.1650634359
13.3475272104
22.8123666249
13.2640497086
21.3570734353
31.0147743213
21.3893109676
12.9479074426
22.6020390416
12.9362606419
-56.0690924453
-51.4199594963
-56.0494192817
-51.3226702323
-46.6209790292
-51.3301290865
-55.9949755677
-51.3914750445
-55.989953878

SCALARS	sig_22	float	1
LOOKUP_TABLE	default
-9.9285675384
5.9807133226
-8.7774940361
3.3466700153
16.4780207049
3.4462141429
-7.2984760614
3.5324143035
-7.1773824019
9.9760599897
16.5989628854
9.9138224335
18.3663211633
25.2533689891
18.3767421714
9.7374932633
16.7313105565
9.7468005018
-43.3466029779
-39.9686221169
-43.3366780309
-38.2026085458
-34.8035390815
-38.1976395983
-43.2586219996
-40.0202075213
-43.2667406282

SCALARS	sig_33	float	1
LOOKUP_TABLE	default
-3.6597461259
37.3976611807
-2.9355778338
25.1662746714
64.8574067683
24.9655926827
-2.5552058527
36.2460315679
-2.5792044328
21.6071570908
51.0156723803
21.5377345243
44.4088413977
74.0592186713
44.4091728104
21.4754955124
51.0829332645
21.4559616404
-144.8443627509
-124.5562521706
-144.8899033216
-127.3077087021
-106.7829582391
-127.2842730863
-144.851897925
-124.5259972765
-144.8279849959

SCALARS vonMises	float	1
LOOKUP_TABLE	default
46.7215856149
37.0084709023
46.1685197105
43.2642661457
39.6488367733
43.5596698158
46.3229835827
38.8623970925
46.4770133815
88.8441224186
85.2039868261
89.0819983007
84.7379450029
78.7886237234
84.7023465306
89.2111632461
84.8894287346
89.2119103613
123.0604015315
115.7978403954
123.1941022686
118.6853111372
111.7608115206
118.6467551992
123.300814576
115.6889600365
123.280514008
