# vtk DataFile Version 2.0
Results
ASCII
DATASET UNSTRUCTURED_GRID
POINTS         27           float
0.0	0.0	0.0	
50.0	0.0	0.0	
100.0	0.0	0.0	
0.0	40.0	0.0	
50.0	40.0	0.0	
100.0	40.0	0.0	
0.0	80.0	0.0	
50.0	80.0	0.0	
100.0	80.0	0.0	
0.0	0.0	70.0	
50.0	0.0	70.0	
100.0	0.0	70.0	
0.0	40.0	70.0	
50.0	40.0	70.0	
100.0	40.0	70.0	
0.0	80.0	70.0	
50.0	80.0	70.0	
100.0	80.0	70.0	
0.0	0.0	140.0	
50.0	0.0	140.0	
100.0	0.0	140.0	
0.0	40.0	140.0	
50.0	40.0	140.0	
100.0	40.0	140.0	
0.0	80.0	140.0	
50.0	80.0	140.0	
100.0	80.0	140.0	

CELLS	8	72
 8	0	1	4	3	9	10	13	12	
 8	1	2	5	4	10	11	14	13	
 8	4	5	8	7	13	14	17	16	
 8	3	4	7	6	12	13	16	15	
 8	9	10	13	12	18	19	22	21	
 8	10	11	14	13	19	20	23	22	
 8	13	14	17	16	22	23	26	25	
 8	12	13	16	15	21	22	25	24	

CELL_TYPES	8
 12
 12
 12
 12
 12
 12
 12
 12

POINT_DATA	27
VECTORS	u 	float 
0.0	0.0	0.0
0.0033828619	0.0	0.0
0.0068402472	0.0	0.0
0.0	0.0081780414	0.0
0.0032869205	0.0081250241	0.0
0.0065259325	0.0084237933	0.0
0.0	0.0173912847	0.0
0.003132654	0.0154117597	0.0
0.0060612528	0.0177830549	0.0
0.0215069768	0.0281425037	-0.0262463881
0.0033955051	0.0322747049	-0.0086962422
-0.0147422254	0.0284738942	-0.0262765276
0.0215863674	0.0080647646	-0.0157100941
0.0032756349	0.0081647462	0.0013047948
-0.0150299633	0.0083579314	-0.015779389
0.0213518899	-0.012256836	-0.0261541963
0.0031555268	-0.0157025475	-0.0085900863
-0.0149967908	-0.0119676535	-0.0262034986
-0.1058366687	-0.0908092455	-0.003865304
0.0034271385	-0.0859855561	0.0475348747
0.112710828	-0.0905263025	-0.0039271056
-0.1049966954	0.0079432148	0.0371420774
0.0033138184	0.0081228785	0.0882994881
0.1116207411	0.0082403646	0.0371024804
-0.1061155845	0.1068104326	-0.0037887596
0.0031997433	0.1021150354	0.0476501416
0.1124982401	0.1070985523	-0.0038414773

VECTORS	v 	float 
0.0	0.0	0.0
-0.0023326296	0.0	0.0
-0.0046600578	0.0	0.0
0.0	-0.0018324992	0.0
-0.0023239604	-0.0018231502	0.0
-0.0046517593	-0.0018296631	0.0
0.0	-0.003648164	0.0
-0.0023371707	-0.0036599206	0.0
-0.0046739151	-0.0036440656	0.0
-1.37983e-05	6.84055e-05	0.0074128049
-0.0023265105	0.0001087245	0.007662311
-0.0046407557	7.3522e-05	0.007413002
-1.23834e-05	-0.0018285068	0.0075658161
-0.0023306816	-0.001828963	0.0078106521
-0.0046477757	-0.0018240898	0.007564857
-1.59306e-05	-0.0037294492	0.0074142802
-0.0023299477	-0.0037627678	0.0076646655
-0.0046442412	-0.003725259	0.0074141437
-0.001384185	-0.0011797362	0.0156153539
-0.0023278725	-0.0011433237	0.01620596
-0.0032709135	-0.0011756364	0.0156155354
-0.0013681818	-0.001831939	0.0160598927
-0.0023285843	-0.0018286744	0.0166474967
-0.0032894969	-0.0018274425	0.0160588001
-0.001388722	-0.0024825785	0.0156171997
-0.0023313724	-0.0025156534	0.01620765
-0.0032740476	-0.0024779933	0.0156175399

VECTORS	a 	float 
0.0	0.0	0.0
-0.605078091	0.0	0.0
-1.2098763983	0.0	0.0
0.0	-0.4845274265	0.0
-0.6042095431	-0.483655941	0.0
-1.2086546381	-0.4845305672	0.0
0.0	-0.9686605727	0.0
-0.6052835195	-0.9676029012	0.0
-1.2103851617	-0.9686635172	0.0
-0.0030455986	-0.003355024	2.0799651019
-0.6045473096	-0.0028312406	2.0805764132
-1.2061372958	-0.0032128642	2.0800066187
-0.0027614641	-0.4840828472	2.0800026796
-0.6048126612	-0.4842141673	2.0804914763
-1.206772265	-0.4839570445	2.079969459
-0.0031038935	-0.9649179823	2.0800085415
-0.6046258183	-0.965503659	2.080719086
-1.2062036164	-0.964811362	2.0800454529
0.0050090638	0.0040784825	4.1569969526
-0.6046980824	0.0047909436	4.1578610493
-1.2143816162	0.0041707817	4.1570899774
0.0062747658	-0.48428077	4.1566812444
-0.6046507994	-0.484162008	4.1572532999
-1.2156105736	-0.4841713077	4.1565948684
0.0048771697	-0.972624819	4.1571260051
-0.6047884792	-0.9731369077	4.1578968536
-1.2144491701	-0.9724964829	4.1572163611

SCALARS	theta	float 1
LOOKUP_TABLE	default
302.7836154658
302.5067807293
302.7686826382
302.6712372613
302.4278456395
302.6677414855
302.7558951021
302.5390513611
302.7590382532
294.7651743302
294.4267770576
294.7673742867
294.5496427376
294.2066068696
294.5499723433
294.7716588846
294.4233214715
294.7712189174
323.2173155607
322.7243520261
323.217299177
322.868873151
322.3758400824
322.8686617532
323.2155724304
322.7247144993
323.2156751937

SCALARS	sig_11	float	1
LOOKUP_TABLE	default
-77.6039878622
-56.3569164612
-76.7552780239
-64.9066161802
-45.5643934653
-64.7647476163
-76.8338380563
-58.8622838748
-77.3483719938
53.4976671361
79.726359451
53.4397939213
76.2157341338
102.4661787943
76.201784546
53.0855262676
79.5100070391
53.1046259152
-128.1867958312
-93.2541289352
-128.1882262231
-95.5406687321
-60.5320511293
-95.5276369187
-128.092380568
-93.2190583422
-128.1108551791

SCALARS	sig_22	float	1
LOOKUP_TABLE	default
-67.6398802794
-48.4914801795
-66.3550187318
-53.8339431925
-37.7922467085
-53.1404541947
-64.7676039885
-51.2888935482
-64.5819519321
41.6153102406
60.3411689641
41.5903268663
65.0468698015
83.8974906111
65.0672731347
41.3617839229
60.4810770857
41.4122444071
-103.5103491128
-78.0107369193
-103.526749754
-69.2165309772
-43.6820580872
-69.2122687964
-103.4081967914
-78.0627492432
-103.4449091835

SCALARS	sig_33	float	1
LOOKUP_TABLE	default
-115.57746738
-74.2564676148
-114.8905235574
-90.5385193864
-51.3421564799
-90.3814704928
-114.1325780799
-75.8473598367
-114.3698447615
74.4956090661
130.0161977051
74.4110127645
121.2486473528
176.6781835437
121.2038682361
74.3732817719
130.09063989
74.3385948421
-288.4123663325
-214.7395115985
-288.4601911576
-219.3041379875
-145.4337678528
-219.2589971034
-288.3755333434
-214.7241430994
-288.3802243247

SCALARS vonMises	float	1
LOOKUP_TABLE	default
104.1244022844
88.5163286605
104.7049039012
76.6208515849
49.7690733898
76.7253590676
105.6424704517
87.4031585225
105.4812345628
196.1121119716
161.5898600548
196.4287803968
156.1569428313
109.9263647641
156.1934129522
196.7257711196
160.8036824934
196.623316496
202.1850873127
174.6101640839
202.2607344086
184.6053853213
158.07698083
184.6025783686
202.4106330016
174.492329833
202.3573535768
