# vtk DataFile Version 2.0
Results
ASCII
DATASET UNSTRUCTURED_GRID
POINTS         27           float
0.0	0.0	0.0	
50.0	0.0	0.0	
100.0	0.0	0.0	
0.0	40.0	0.0	
50.0	40.0	0.0	
100.0	40.0	0.0	
0.0	80.0	0.0	
50.0	80.0	0.0	
100.0	80.0	0.0	
0.0	0.0	70.0	
50.0	0.0	70.0	
100.0	0.0	70.0	
0.0	40.0	70.0	
50.0	40.0	70.0	
100.0	40.0	70.0	
0.0	80.0	70.0	
50.0	80.0	70.0	
100.0	80.0	70.0	
0.0	0.0	140.0	
50.0	0.0	140.0	
100.0	0.0	140.0	
0.0	40.0	140.0	
50.0	40.0	140.0	
100.0	40.0	140.0	
0.0	80.0	140.0	
50.0	80.0	140.0	
100.0	80.0	140.0	

CELLS	8	72
 8	0	1	4	3	9	10	13	12	
 8	1	2	5	4	10	11	14	13	
 8	4	5	8	7	13	14	17	16	
 8	3	4	7	6	12	13	16	15	
 8	9	10	13	12	18	19	22	21	
 8	10	11	14	13	19	20	23	22	
 8	13	14	17	16	22	23	26	25	
 8	12	13	16	15	21	22	25	24	

CELL_TYPES	8
 12
 12
 12
 12
 12
 12
 12
 12

POINT_DATA	27
VECTORS	u 	float 
0.0	0.0	0.0
0.0045359392	0.0	0.0
0.0091092659	0.0	0.0
0.0	0.008361578	0.0
0.0044589035	0.0083127075	0.0
0.0088921744	0.0085595271	0.0
0.0	0.0175377541	0.0
0.0043307482	0.0159699463	0.0
0.0084826023	0.0178605693	0.0
0.0205356179	0.0257072688	-0.0212107437
0.0045457112	0.0292043568	-0.0077932214
-0.0114597739	0.0259750022	-0.0212376039
0.0206369042	0.0082652608	-0.0132522685
0.0044488245	0.0083480441	-0.0003109494
-0.0117384204	0.0085036398	-0.013311005
0.020408273	-0.0093695642	-0.0211377636
0.0043514592	-0.0123161597	-0.0077029592
-0.0116662105	-0.0091348341	-0.0211785747
-0.0814968277	-0.0700772133	-0.00722604
0.0045734425	-0.0657992028	0.0339127367
0.0906573012	-0.0698468286	-0.0072771414
-0.0806936	0.0081669539	0.0257955141
0.0044812116	0.0083116954	0.0666966588
0.0896544817	0.0084076725	0.0257612895
-0.0817227551	0.0865015443	-0.0071609094
0.0043886332	0.0823304774	0.034005808
0.0904850154	0.0867348972	-0.0072053408

VECTORS	v 	float 
0.0	0.0	0.0
0.0021997835	0.0	0.0
0.004398686	0.0	0.0
0.0	0.0018141266	0.0
0.0021886077	0.0018032436	0.0
0.0043784749	0.0018168638	0.0
0.0	0.0036370998	0.0
0.0021991553	0.0035988022	0.0
0.0043949505	0.003641021	0.0
0.0001333536	0.0002231893	-0.008004615
0.0021937082	0.0002578409	-0.0077681004
0.0042543678	0.0002253876	-0.0080052818
0.0001292649	0.0018075361	-0.0078550126
0.0021953832	0.0018101831	-0.0076205045
0.004260772	0.0018094039	-0.0078551891
0.0001323551	0.003389982	-0.0080039051
0.0021919121	0.0033645258	-0.0077686179
0.004252326	0.0033920468	-0.0080048387
-0.0014766951	-0.0012575773	-0.0152217084
0.0021957769	-0.0012296882	-0.0146047937
0.0058683259	-0.0012551961	-0.0152232411
-0.001489483	0.0018082897	-0.0147266589
0.002193847	0.0018090633	-0.0141069151
0.0058774698	0.0018107167	-0.0147260849
-0.0014786604	0.0048754412	-0.0152223395
0.0021939721	0.0048466169	-0.0146038405
0.0058664086	0.0048775723	-0.0152237346

VECTORS	a 	float 
0.0	0.0	0.0
0.4526104484	0.0	0.0
0.9050502274	0.0	0.0
0.0	0.3624389903	0.0
0.452211812	0.3621329896	0.0
0.9045645527	0.3624607459	0.0
0.0	0.7246910763	0.0
0.4527273255	0.7243986307	0.0
0.905321211	0.7247310148	0.0
0.0024732568	0.0027611608	-1.5562264074
0.4523725993	0.0024962368	-1.5565308431
0.9023248685	0.002697724	-1.5562472635
0.002229172	0.3622956561	-1.5562487939
0.4524968708	0.3623412376	-1.5565558805
0.9027123036	0.3622376245	-1.5562457074
0.0025000409	0.721881687	-1.5562462714
0.4524035766	0.7221445603	-1.5566093225
0.9023466772	0.7218310567	-1.556264913
-0.0044100428	-0.0036802884	-3.1104265967
0.4524465468	-0.0038932375	-3.1102476244
0.9092913003	-0.0037211227	-3.1104830239
-0.0050346393	0.3623810594	-3.109743401
0.452424546	0.3623332677	-3.1094612203
0.9099000913	0.3623318553	-3.1097021872
-0.0043496508	0.728435863	-3.1104893787
0.4524887042	0.7285679092	-3.1102713418
0.9093230392	0.7283768546	-3.1105437354

SCALARS	theta	float 1
LOOKUP_TABLE	default
302.680788187
302.4274188812
302.6674568011
302.5810058348
302.3633999415
302.5769949444
302.6508269068
302.4611474262
302.6547073
295.4594753961
295.1150044706
295.4617299082
295.2173423453
294.8681098572
295.2179221401
295.4664672263
295.1106810934
295.4658348597
318.4641578287
317.9315424336
318.4639734455
318.0512899876
317.5185409883
318.0509108748
318.4620068669
317.9323890374
318.4622489433

SCALARS	sig_11	float	1
LOOKUP_TABLE	default
-66.6097939927
-49.2277286168
-65.9571617901
-56.3112845019
-40.5275227131
-56.1438899975
-65.9193744658
-51.3194635636
-66.3778924612
43.9607375455
66.6103511523
43.9138189131
63.9236483354
86.5772368624
63.9080091071
43.6278531071
66.4401096034
43.6458062383
-107.3289415453
-76.2423125676
-107.3308151743
-77.8249530019
-46.6672361434
-77.8114181389
-107.2485760823
-76.2159193699
-107.266177318

SCALARS	sig_22	float	1
LOOKUP_TABLE	default
-57.7898935265
-42.179097569
-56.7514139724
-46.5913486972
-33.5376576088
-45.9838442164
-55.4353610477
-44.477362011
-55.2949470641
34.0918427656
50.3894404861
34.0721162724
54.6596775283
71.0451486136
54.6754861603
33.8853811366
50.5041931457
33.9290695029
-87.0777433377
-64.1942312238
-87.0925635279
-56.1530644638
-33.2317090592
-56.1480478048
-86.9924375059
-64.2381193113
-87.025370145

SCALARS	sig_33	float	1
LOOKUP_TABLE	default
-101.3237821595
-68.6172149593
-100.7731090123
-81.6906589901
-50.8046162447
-81.5287007342
-100.0878036913
-69.9728907807
-100.3073734766
59.517353969
105.6426465515
59.4449247547
98.905827313
144.9393058989
98.8649888322
59.4175584092
105.7053916247
59.3886815559
-239.3272023028
-176.4466973227
-239.3642029224
-179.6904658468
-116.6329678343
-179.6501428121
-239.2893179441
-176.4400071222
-239.2969742112

SCALARS vonMises	float	1
LOOKUP_TABLE	default
93.0370543517
78.270220299
93.4853583388
68.8662140685
43.4212110194
68.9610551222
94.2199652895
77.349790963
94.0867844108
162.2526980227
132.6392036866
162.4983615649
128.1739326525
88.0000641095
128.2101098577
162.737662383
132.0020808086
162.6544562317
164.7545132116
141.2441129398
164.8097819273
149.5693368754
126.7675963552
149.5681445663
164.9332285828
141.1495033908
164.8888065032
