# vtk DataFile Version 2.0
Results
ASCII
DATASET UNSTRUCTURED_GRID
POINTS         27           float
0.0	0.0	0.0	
50.0	0.0	0.0	
100.0	0.0	0.0	
0.0	40.0	0.0	
50.0	40.0	0.0	
100.0	40.0	0.0	
0.0	80.0	0.0	
50.0	80.0	0.0	
100.0	80.0	0.0	
0.0	0.0	70.0	
50.0	0.0	70.0	
100.0	0.0	70.0	
0.0	40.0	70.0	
50.0	40.0	70.0	
100.0	40.0	70.0	
0.0	80.0	70.0	
50.0	80.0	70.0	
100.0	80.0	70.0	
0.0	0.0	140.0	
50.0	0.0	140.0	
100.0	0.0	140.0	
0.0	40.0	140.0	
50.0	40.0	140.0	
100.0	40.0	140.0	
0.0	80.0	140.0	
50.0	80.0	140.0	
100.0	80.0	140.0	

CELLS	8	72
 8	0	1	4	3	9	10	13	12	
 8	1	2	5	4	10	11	14	13	
 8	4	5	8	7	13	14	17	16	
 8	3	4	7	6	12	13	16	15	
 8	9	10	13	12	18	19	22	21	
 8	10	11	14	13	19	20	23	22	
 8	13	14	17	16	22	23	26	25	
 8	12	13	16	15	21	22	25	24	

CELL_TYPES	8
 12
 12
 12
 12
 12
 12
 12
 12

POINT_DATA	27
VECTORS	u 	float 
0.0	0.0	0.0
0.004666207	0.0	0.0
0.0093430044	0.0	0.0
0.0	0.0070439829	0.0
0.004615363	0.0069991893	0.0
0.0092195004	0.0071723805	0.0
0.0	0.0145970108	0.0
0.0045289003	0.0135939316	0.0
0.0089337136	0.0148131263	0.0
0.0158249747	0.0190146457	-0.0144627914
0.0046714951	0.0214399272	-0.0063772055
-0.0064884465	0.0191897107	-0.0144825288
0.015981806	0.0069720319	-0.0097193232
0.0046081765	0.0070294531	-0.0019885373
-0.006766243	0.0071294893	-0.0097601039
0.0157402367	-0.0051914496	-0.0144172222
0.0045441988	-0.0072603117	-0.0063128261
-0.0066244571	-0.0050369067	-0.014444702
-0.0494550568	-0.0426447545	-0.0093317028
0.0046916939	-0.0395075561	0.0168536325
0.0588457223	-0.0424921288	-0.0093661228
-0.0487285909	0.006908561	0.0118177977
0.0046307427	0.0070020884	0.0378063416
0.0579893596	0.0070667105	0.0117936338
-0.049603796	0.056517778	-0.0092854613
0.0045695839	0.0534541961	0.0169141957
0.0587326896	0.056671129	-0.0093161734

VECTORS	v 	float 
0.0	0.0	0.0
-0.0021992513	0.0	0.0
-0.0043988298	0.0	0.0
0.0	-0.0016782157	0.0
-0.0022038216	-0.0016767548	0.0
-0.0044072406	-0.0016738368	0.0
0.0	-0.0033410986	0.0
-0.0022018899	-0.0033663429	0.0
-0.0044085714	-0.0033338658	0.0
0.0003321925	0.0004318894	0.0073693489
-0.0022007118	0.0004913367	0.0076268085
-0.0047335686	0.0004368086	0.0073687496
0.0003290897	-0.001678308	0.0075246176
-0.0022017014	-0.0016772593	0.0077736555
-0.0047327507	-0.0016740964	0.0075232483
0.0003300045	-0.0037921552	0.0073707356
-0.0022044048	-0.0038420635	0.00762789
-0.004737599	-0.0037881184	0.0073698318
-0.0015749055	-0.0013528674	0.0154473877
-0.0021996069	-0.001282641	0.016220399
-0.0028240297	-0.0013487636	0.0154459036
-0.0015694212	-0.0016802054	0.0160696227
-0.0022015082	-0.0016773733	0.0168393429
-0.0028336734	-0.0016758541	0.0160691861
-0.0015790334	-0.0020058242	0.015448547
-0.0022028501	-0.0020739493	0.0162216842
-0.0028270105	-0.0020015912	0.0154471973

VECTORS	a 	float 
0.0	0.0	0.0
-0.2644812261	0.0	0.0
-0.5288979653	0.0	0.0
0.0	-0.211896355	0.0
-0.2643627974	-0.211817221	0.0
-0.5287777176	-0.211913882	0.0
0.0	-0.4237518077	0.0
-0.2645176099	-0.4236612072	0.0
-0.5289749631	-0.4237839867	0.0
-0.0019166867	-0.0021721491	0.9094685878
-0.2644136617	-0.0022022092	0.9092565534
-0.5269304908	-0.002160247	0.909477037
-0.0018317487	-0.211860476	0.9093115269
-0.2644487639	-0.2118749862	0.9091293883
-0.5270466051	-0.2118491635	0.90931537
-0.0019212792	-0.4215615008	0.9094745394
-0.2644165999	-0.4215390585	0.9092799962
-0.5269291846	-0.4215519929	0.9094822372
0.0038748141	0.003299538	1.8174616493
-0.2644379401	0.0031679403	1.8161606727
-0.5327469966	0.0033052827	1.8174852005
0.0040084067	-0.211884325	1.8162505669
-0.2644289669	-0.2118741881	1.8149301411
-0.5328715401	-0.2118759125	1.8162378887
0.0038622761	-0.4270681036	1.8174819836
-0.2644459845	-0.4269164376	1.8161656421
-0.5327521951	-0.4270560909	1.8175041858

SCALARS	theta	float 1
LOOKUP_TABLE	default
302.1099659394
301.9113329986
302.1000116552
302.0342251311
301.8727426259
302.0302024385
302.0795775001
301.9440531148
302.083929355
296.857446885
296.5535357572
296.8594566758
296.604482462
296.295948116
296.6052815283
296.8648647019
296.5481513778
296.8639914553
311.7773733401
311.2761333659
311.7770705568
311.3264286353
310.8244287028
311.325845849
311.7745417594
311.2778729147
311.7750212533

SCALARS	sig_11	float	1
LOOKUP_TABLE	default
-46.6308413071
-34.8559587099
-46.2116717841
-39.6075456014
-29.0264138863
-39.461317546
-46.0648604805
-36.3424110022
-46.4021855576
28.3968987727
44.7799612162
28.363480279
43.4618115305
59.834486061
43.4478012812
28.1703427175
44.6773789321
28.1847272732
-73.6767410484
-50.34815521
-73.677674483
-50.6825995115
-27.2920718876
-50.6703694538
-73.6135115996
-50.3371147224
-73.6282224758

SCALARS	sig_22	float	1
LOOKUP_TABLE	default
-40.314478068
-29.7712038723
-39.6221214848
-32.6821394479
-23.9374471833
-32.2449747361
-38.6899997564
-31.357665949
-38.6110635986
21.7929672751
33.763529993
21.7780010789
37.3650791962
49.3796934253
37.3738327378
21.6495232747
33.8458677868
21.6809120491
-60.352801671
-42.9158884104
-60.3633115014
-36.2139207355
-18.7352209855
-36.2078725741
-60.2893513011
-42.9504945161
-60.3147782582

SCALARS	sig_33	float	1
LOOKUP_TABLE	default
-74.8998537948
-53.9083158384
-74.5305735688
-62.279939435
-42.6620754603
-62.1452797837
-73.9743409628
-54.9095075503
-74.1475516949
34.8299925608
66.1965352673
34.7764038618
62.5009104544
93.7891190361
62.4692472351
34.7569412574
66.2461477766
34.7379837982
-163.4689319709
-119.3115505176
-163.4908225294
-120.4620826339
-76.1641248698
-120.4307060152
-163.4287637172
-119.3192551641
-163.4383662041

SCALARS vonMises	float	1
LOOKUP_TABLE	default
68.0175831436
56.7211925333
68.2999182182
50.9639415699
31.7065475081
51.0348544668
68.7635312479
56.1060562813
68.6747717731
107.9922305624
87.2072266517
108.1474134813
84.3065066982
55.4164239901
84.3345379071
108.3002770137
86.7886889936
108.2458055874
108.9869894708
92.5020781877
109.0187375849
97.9693587868
81.6701977861
97.9681083199
109.1002213374
92.4416339684
109.0708735995
