# vtk DataFile Version 2.0
Results
ASCII
DATASET UNSTRUCTURED_GRID
POINTS         27           float
0.0	0.0	0.0	
50.0	0.0	0.0	
100.0	0.0	0.0	
0.0	40.0	0.0	
50.0	40.0	0.0	
100.0	40.0	0.0	
0.0	80.0	0.0	
50.0	80.0	0.0	
100.0	80.0	0.0	
0.0	0.0	70.0	
50.0	0.0	70.0	
100.0	0.0	70.0	
0.0	40.0	70.0	
50.0	40.0	70.0	
100.0	40.0	70.0	
0.0	80.0	70.0	
50.0	80.0	70.0	
100.0	80.0	70.0	
0.0	0.0	140.0	
50.0	0.0	140.0	
100.0	0.0	140.0	
0.0	40.0	140.0	
50.0	40.0	140.0	
100.0	40.0	140.0	
0.0	80.0	140.0	
50.0	80.0	140.0	
100.0	80.0	140.0	

CELLS	8	72
 8	0	1	4	3	9	10	13	12	
 8	1	2	5	4	10	11	14	13	
 8	4	5	8	7	13	14	17	16	
 8	3	4	7	6	12	13	16	15	
 8	9	10	13	12	18	19	22	21	
 8	10	11	14	13	19	20	23	22	
 8	13	14	17	16	22	23	26	25	
 8	12	13	16	15	21	22	25	24	

CELL_TYPES	8
 12
 12
 12
 12
 12
 12
 12
 12

POINT_DATA	27
VECTORS	u 	float 
0.0	0.0	0.0
-0.0141216418	0.0	0.0
-0.0278325852	0.0	0.0
0.0	-0.0108075745	0.0
-0.014161788	-0.0108375714	0.0
-0.0286074752	-0.0105913246	0.0
0.0	-0.0204674477	0.0
-0.014333384	-0.0226313508	0.0
-0.0286154966	-0.0201937149	0.0
-0.0199545841	-0.0132871845	-0.0224925158
-0.0140777969	-0.0111020307	-0.0004850504
-0.008304788	-0.0129837218	-0.0224927499
-0.0198973118	-0.0108909215	-0.0078901663
-0.0142010907	-0.0108170096	0.0140943959
-0.0084374203	-0.0106342369	-0.0079253541
-0.0200694334	-0.0087599413	-0.0224008432
-0.0142923557	-0.0102714215	-0.0004095996
-0.0085333804	-0.008503965	-0.0224330267
-0.1224561262	-0.1038501734	0.038769428
-0.0140799212	-0.1031511146	0.0792774113
0.0943480339	-0.1036074353	0.0387294717
-0.1223916331	-0.0110044783	0.0686395346
-0.0141707514	-0.0108378723	0.1094115348
0.0940184443	-0.0107396799	0.0686258843
-0.1227117801	0.0819664831	0.0388185532
-0.0142784666	0.0813534679	0.0793840657
0.0941633433	0.0822246857	0.0387930591

VECTORS	v 	float 
0.0	0.0	0.0
-6.92285e-05	0.0	0.0
-0.0001367434	0.0	0.0
0.0	-0.0001034731	0.0
-6.40795e-05	-9.5568e-05	0.0
-0.0001296259	-0.0001038008	0.0
0.0	-0.00020756	0.0
-6.90923e-05	-0.000190618	0.0
-0.0001367299	-0.0002081977	0.0
-0.0003088642	-0.0003352212	0.0001256917
-6.61465e-05	-0.0003482564	8.53488e-05
0.0001761872	-0.0003353952	0.0001261984
-0.0003051078	-9.87327e-05	0.0001104391
-6.72473e-05	-0.0001003512	6.92678e-05
0.000171138	-9.89441e-05	0.0001101679
-0.000308607	0.0001378188	0.0001257544
-6.59502e-05	0.0001474456	8.53997e-05
0.000176358	0.0001375104	0.0001261713
0.0003460394	0.0002945412	0.0002580023
-6.70566e-05	0.0002827964	3.7404e-06
-0.0004800014	0.0002942057	0.0002585102
0.0003570517	-9.96921e-05	4.07846e-05
-6.63991e-05	-9.9336e-05	-0.0002157123
-0.0004901315	-9.99944e-05	4.05051e-05
0.0003462132	-0.000494092	0.0002584041
-6.67884e-05	-0.0004813214	3.3972e-06
-0.0004796499	-0.0004943116	0.0002588559

VECTORS	a 	float 
0.0	0.0	0.0
-0.8964588407	0.0	0.0
-1.7921971048	0.0	0.0
0.0	-0.7174376973	0.0
-0.8936037339	-0.7147366473	0.0
-1.7878036234	-0.71749133	0.0
0.0	-1.4336677667	0.0
-0.8972457596	-1.4303107116	0.0
-1.7939755604	-1.4337674433	0.0
-0.0027336537	-0.0028841174	3.0796290407
-0.8947380125	-0.0002098749	3.0826751014
-1.7869922669	-0.0024223849	3.0797912751
-0.0010433847	-0.7160855687	3.0803182463
-0.8956163827	-0.7164780708	3.0826211188
-1.7899421913	-0.7156553611	3.0802279074
-0.0029642261	-1.4296160372	3.0798189254
-0.8949858341	-1.4324865052	3.0831143686
-1.7871888972	-1.4292206929	3.0799474704
0.0040356571	0.0028236667	6.1570627029
-0.8952407092	0.0072085109	6.1676300801
-1.7944769946	0.0031568493	6.1574174806
0.0097198421	-0.716718301	6.1634827655
-0.895098513	-0.7163307991	6.1726225985
-1.7999766616	-0.7163449119	6.1631839182
0.0036331757	-1.436203093	6.1574848224
-0.8955492041	-1.4399275537	6.1677715799
-1.7947324541	-1.4357861476	6.1578112809

SCALARS	theta	float 1
LOOKUP_TABLE	default
297.7818586557
297.758955837
297.7789993002
297.7556291431
297.7281562162
297.7589096401
297.7876702275
297.754500691
297.7855345405
300.542374316
300.6804939491
300.5418934125
300.6537530227
300.7918049721
300.652750609
300.5417609659
300.6822796687
300.5421261213
321.6878733936
322.0303192353
321.6882853482
321.9529880525
322.2960719166
321.9534480347
321.688418936
322.0298101214
321.688115631

SCALARS	sig_11	float	1
LOOKUP_TABLE	default
-18.0656023098
0.2494460373
-16.7699716254
-5.3026546705
11.1652585667
-5.7796221819
-17.5185726512
-1.8383458524
-17.5718989453
22.3358253755
33.7537375042
22.255137319
31.8233265939
43.4303716426
31.8527284016
21.9172634705
33.5304248896
21.9089269419
-69.3972288075
-62.0759291723
-69.3807478915
-62.4338818328
-55.0558906696
-62.4407068298
-69.3197679232
-62.0436934721
-69.3167893772

SCALARS	sig_22	float	1
LOOKUP_TABLE	default
-19.40371957
-2.4011647987
-18.1792808258
-5.563894499
8.5400339002
-5.4008012971
-16.6613350784
-4.9703102033
-16.5107705135
17.1746068121
25.1418055832
17.1176974421
27.0580504269
35.2927149661
27.0719038459
16.9249339734
25.2787106425
16.9402603676
-53.990430121
-48.7812421513
-53.984349716
-46.5168244095
-41.285059962
-46.5134675482
-53.8986921402
-48.833513615
-53.9098354566

SCALARS	sig_33	float	1
LOOKUP_TABLE	default
-19.3188505842
24.1098433096
-18.5651613492
10.5153891492
52.4931581727
10.3343946502
-18.1739225677
22.8998466296
-18.2092697803
35.3144708831
69.9290111578
35.2449233535
62.3086479398
97.1488855987
62.3058513087
35.1788260857
69.9978166715
35.1571937198
-175.1793087741
-146.809566945
-175.2295281298
-150.3688999971
-121.7544643296
-150.3447338082
-175.1859727195
-146.775426372
-175.1635030555

SCALARS vonMises	float	1
LOOKUP_TABLE	default
30.2879703077
27.2776709914
29.874510273
31.9878568117
37.2819073095
32.2719629525
30.5160387452
29.233657864
30.7361019464
108.1247420169
101.1045933852
108.4842431532
99.3350567585
89.1166247106
99.2818126286
108.7037868454
100.6384503957
108.6882399905
144.2440773701
133.8280461727
144.3776756549
137.9944549412
128.1722127687
137.9608381528
144.4938597648
133.7122010447
144.4682471378
