# vtk DataFile Version 2.0
Results
ASCII
DATASET UNSTRUCTURED_GRID
POINTS         27           float
0.0	0.0	0.0	
50.0	0.0	0.0	
100.0	0.0	0.0	
0.0	40.0	0.0	
50.0	40.0	0.0	
100.0	40.0	0.0	
0.0	80.0	0.0	
50.0	80.0	0.0	
100.0	80.0	0.0	
0.0	0.0	70.0	
50.0	0.0	70.0	
100.0	0.0	70.0	
0.0	40.0	70.0	
50.0	40.0	70.0	
100.0	40.0	70.0	
0.0	80.0	70.0	
50.0	80.0	70.0	
100.0	80.0	70.0	
0.0	0.0	140.0	
50.0	0.0	140.0	
100.0	0.0	140.0	
0.0	40.0	140.0	
50.0	40.0	140.0	
100.0	40.0	140.0	
0.0	80.0	140.0	
50.0	80.0	140.0	
100.0	80.0	140.0	

CELLS	8	72
 8	0	1	4	3	9	10	13	12	
 8	1	2	5	4	10	11	14	13	
 8	4	5	8	7	13	14	17	16	
 8	3	4	7	6	12	13	16	15	
 8	9	10	13	12	18	19	22	21	
 8	10	11	14	13	19	20	23	22	
 8	13	14	17	16	22	23	26	25	
 8	12	13	16	15	21	22	25	24	

CELL_TYPES	8
 12
 12
 12
 12
 12
 12
 12
 12

POINT_DATA	27
VECTORS	u 	float 
0.0	0.0	0.0
-0.0070224425	0.0	0.0
-0.0137906876	0.0	0.0
0.0	-0.0015950538	0.0
-0.0071118518	-0.0016268718	0.0
-0.0143876907	-0.0013152437	0.0
0.0	-0.0018761001	0.0
-0.0072966988	-0.004338544	0.0
-0.0147146487	-0.0014726138	0.0
0.0036295474	0.0119701443	-0.0286213563
-0.0069925353	0.0157459987	-0.00450399
-0.0176852615	0.0123502659	-0.0286403332
0.0035482523	-0.001701479	-0.0134779785
-0.0071357586	-0.0015996071	0.0103202983
-0.0177855184	-0.0013732155	-0.0135402479
0.0034655493	-0.0156793261	-0.0285087058
-0.007264904	-0.0186423395	-0.0044014433
-0.0179729317	-0.0153534852	-0.0285582972
-0.1408026378	-0.1200045263	0.0220836365
-0.0069733711	-0.116784157	0.0803447329
0.1268956849	-0.1196904879	0.0220221073
-0.1405387895	-0.0018427456	0.0672572677
-0.0070968511	-0.0016340585	0.1255490642
0.1263288859	-0.0015061723	0.067224823
-0.1411208272	0.1164648003	0.0221555471
-0.0072279953	0.113371559	0.0804780566
0.1266563776	0.1167918022	0.0221082592

VECTORS	v 	float 
0.0	0.0	0.0
-0.0002486965	0.0	0.0
-0.0004939232	0.0	0.0
0.0	-0.0002998408	0.0
-0.0002461467	-0.0002940101	0.0
-0.000494725	-0.0003009374	0.0
0.0	-0.0006044453	0.0
-0.0002454356	-0.0005848789	0.0
-0.0004875117	-0.0006069235	0.0
-0.0007017338	-0.0007348372	0.0001301777
-0.0002474195	-0.0007923221	7.8065e-05
0.0002062307	-0.0007371824	0.0001308488
-0.0007072575	-0.0002955636	0.0001184914
-0.0002468457	-0.0002973001	7.54292e-05
0.0002142522	-0.0002979606	0.0001187341
-0.00070007	0.0001449491	0.0001295423
-0.0002457784	0.0001966415	7.65355e-05
0.0002078262	0.000142486	0.0001301663
0.0004033179	0.0003657544	0.0004199273
-0.0002481578	0.0002759857	-4.2526e-05
-0.0008991984	0.0003633252	0.0004201933
0.0003867734	-0.0002950746	1.32859e-05
-0.0002469465	-0.0002960806	-0.0004407438
-0.0008812045	-0.0002974333	1.38311e-05
0.000405358	-0.000956485	0.0004189997
-0.0002462115	-0.0008675916	-4.36976e-05
-0.0008973022	-0.0009587311	0.0004193098

VECTORS	a 	float 
0.0	0.0	0.0
0.8955866244	0.0	0.0
1.7905496411	0.0	0.0
0.0	0.7169227791	0.0
0.8939832668	0.7159767127	0.0
1.7884715305	0.7170705016	0.0
0.0	1.4331467388	0.0
0.8961713711	1.432399118	0.0
1.7917770223	1.433426377	0.0
0.0021539796	0.0031180243	-3.0802147226
0.8946590498	0.00176305	-3.0822434059
1.78737173	0.0028674579	-3.0803044308
0.0010622345	0.7165366352	-3.0806124753
0.8951656238	0.7166601226	-3.0826444104
1.7890774529	0.7162877291	-3.0806417117
0.0022910899	1.4301489499	-3.0803190322
0.8947715517	1.4314229482	-3.0825628471
1.7874344532	1.4299088972	-3.0803947406
-0.0039910048	-0.0031599409	-6.1588538172
0.8949681329	-0.0043703927	-6.1627968495
1.7939041137	-0.0033437037	-6.1591257172
-0.0063769379	0.7168545424	-6.1607802034
0.8948920656	0.7166781401	-6.1641930114
1.7961918891	0.7166482826	-6.1606075983
-0.003762207	1.4368430481	-6.1591130945
0.895151167	1.4377435844	-6.1629087614
1.7940575365	1.4366079577	-6.1593681676

SCALARS	theta	float 1
LOOKUP_TABLE	default
300.4605410147
300.3063595578
300.4496788625
300.3839053458
300.2267504751
300.3862774082
300.4623441811
300.3088151071
300.45962363
296.4373021699
296.4031063926
296.4378418669
296.5071022852
296.4706616593
296.5058858587
296.4368060822
296.4059096734
296.4376108178
327.5362969968
327.6537882513
327.536754761
327.7750605293
327.8932662531
327.7758695189
327.5377834379
327.6517054084
327.5370609035

SCALARS	sig_11	float	1
LOOKUP_TABLE	default
-61.4620570585
-38.3793887707
-60.2543055564
-46.9524132332
-25.7998446029
-47.117810444
-60.8597452705
-40.9380638384
-61.2011041945
51.7584925752
73.366497963
51.6863116204
69.1438916875
90.8956465374
69.153148147
51.2831247519
73.0927331259
51.28979906
-120.6190258973
-97.3057247023
-120.6138644921
-100.4441691307
-77.0551090921
-100.4438102527
-120.5335598856
-97.2542133001
-120.540575566

SCALARS	sig_22	float	1
LOOKUP_TABLE	default
-55.3860932374
-34.2710322912
-53.9098652227
-39.6412439203
-21.8605547067
-39.1253846043
-52.2059953199
-37.3218936593
-51.9689275065
40.6306834366
55.6516193679
40.5922224229
58.4881180667
73.7636528005
58.5129222155
40.3472043552
55.8025343956
40.3873662674
-95.3333339261
-78.9199524248
-95.3419779766
-74.1344091657
-57.6934074321
-74.1352730048
-95.2308485232
-78.9709249266
-95.2563206081

SCALARS	sig_33	float	1
LOOKUP_TABLE	default
-79.2792900954
-28.5972177308
-78.4510546016
-47.1073284549
1.7121793211
-47.1257754937
-77.9187207613
-30.0992662835
-78.0523067086
81.9025106051
136.7033706078
81.8212574171
125.4538230565
180.3516790927
125.4285308189
81.7645729537
136.7736878737
81.729846677
-281.1657901372
-218.986167618
-281.2281814273
-225.8585898558
-163.4254382886
-225.8239729683
-281.1684016125
-218.9378234868
-281.1543446367

SCALARS vonMises	float	1
LOOKUP_TABLE	default
58.8417766878
57.9001743062
59.6877466993
43.3267273424
44.0422493004
43.3689865068
61.1531755221
57.1121168354
61.06198004
191.4445377928
165.1323299452
191.8869762574
159.5984400539
126.0210662956
159.5747483248
192.2365557311
164.2690862714
192.1473971458
214.0012926483
190.873669117
214.123334788
200.2136941932
178.6107957143
200.1988805059
214.2842629507
190.7327685209
214.2340126758
