# vtk DataFile Version 2.0
Results
ASCII
DATASET UNSTRUCTURED_GRID
POINTS         27           float
0.0	0.0	0.0	
50.0	0.0	0.0	
100.0	0.0	0.0	
0.0	40.0	0.0	
50.0	40.0	0.0	
100.0	40.0	0.0	
0.0	80.0	0.0	
50.0	80.0	0.0	
100.0	80.0	0.0	
0.0	0.0	70.0	
50.0	0.0	70.0	
100.0	0.0	70.0	
0.0	40.0	70.0	
50.0	40.0	70.0	
100.0	40.0	70.0	
0.0	80.0	70.0	
50.0	80.0	70.0	
100.0	80.0	70.0	
0.0	0.0	140.0	
50.0	0.0	140.0	
100.0	0.0	140.0	
0.0	40.0	140.0	
50.0	40.0	140.0	
100.0	40.0	140.0	
0.0	80.0	140.0	
50.0	80.0	140.0	
100.0	80.0	140.0	

CELLS	8	72
 8	0	1	4	3	9	10	13	12	
 8	1	2	5	4	10	11	14	13	
 8	4	5	8	7	13	14	17	16	
 8	3	4	7	6	12	13	16	15	
 8	9	10	13	12	18	19	22	21	
 8	10	11	14	13	19	20	23	22	
 8	13	14	17	16	22	23	26	25	
 8	12	13	16	15	21	22	25	24	

CELL_TYPES	8
 12
 12
 12
 12
 12
 12
 12
 12

POINT_DATA	27
VECTORS	u 	float 
0.0	0.0	0.0
-0.010022728	0.0	0.0
-0.019635498	0.0	0.0
0.0	-0.010036808	0.0
-0.0100307286	-0.0100655701	0.0
-0.0203549781	-0.009892249	0.0
0.0	-0.0192272818	0.0
-0.0101644221	-0.0208404675	0.0
-0.0202042904	-0.0190690623	0.0
-0.0317193754	-0.0279153274	-0.0053356778
-0.0099808991	-0.0267183338	0.0106596973
0.0116593403	-0.0277077305	-0.0053272887
-0.0316685748	-0.0100948387	0.0058611527
-0.0100708358	-0.0100487688	0.0219446623
0.0115989815	-0.009920816	0.0058440043
-0.0317870373	0.0075287328	-0.0052741113
-0.010126726	0.0068112829	0.0107070034
0.0115001981	0.0077037739	-0.0052926326
-0.0828849455	-0.0704891491	0.0585406578
-0.0099912808	-0.0706856035	0.0774114426
0.0629488626	-0.0703256185	0.0585180872
-0.0830648342	-0.0101720177	0.0711577478
-0.0100495094	-0.0100569852	0.0903171878
0.0629321417	-0.0099920762	0.0711554701
-0.0830620318	0.0502379299	0.0585667779
-0.0101254096	0.0504829322	0.0774820279
0.0628257939	0.0504135118	0.0585559794

VECTORS	v 	float 
0.0	0.0	0.0
7.77796e-05	0.0	0.0
0.0001585614	0.0	0.0
0.0	5.15238e-05	0.0
8.3096e-05	5.59792e-05	0.0
0.0001635617	5.1155e-05	0.0
0.0	0.000105753	0.0
7.60381e-05	0.0001100462	0.0
0.0001543676	0.0001053008	0.0
4.2808e-05	9.3752e-06	9.26399e-05
8.09988e-05	1.64154e-05	7.157e-05
0.0001182596	1.04447e-05	9.2974e-05
5.09893e-05	5.35594e-05	7.73735e-05
7.92304e-05	5.29349e-05	5.53509e-05
0.0001084494	5.45372e-05	7.72436e-05
4.24108e-05	9.69502e-05	9.3076e-05
8.0438e-05	9.01292e-05	7.28651e-05
0.0001178145	9.77445e-05	9.33323e-05
0.0002278709	0.0001901837	6.89619e-05
8.0039e-05	0.0001981795	1.49759e-05
-6.75099e-05	0.0001910087	6.98359e-05
0.0002433097	5.21329e-05	2.52952e-05
8.02581e-05	5.29434e-05	-3.14908e-05
-8.31881e-05	5.31095e-05	2.4619e-05
0.0002266777	-8.5833e-05	7.01645e-05
7.92058e-05	-9.24553e-05	1.53469e-05
-6.81555e-05	-8.46547e-05	7.09352e-05

VECTORS	a 	float 
0.0	0.0	0.0
-0.8949713675	0.0	0.0
-1.7877166	0.0	0.0
0.0	-0.7201174741	0.0
-0.8881848988	-0.7128768112	0.0
-1.7782524409	-0.7199923521	0.0
0.0	-1.4366201674	0.0
-0.8966959726	-1.428459109	0.0
-1.7921134551	-1.4363698075	0.0
0.0025192921	-0.0055109989	3.074375354
-0.8907732989	0.0016708636	3.0839144684
-1.7847750301	-0.0042119563	3.0747478326
0.0071596316	-0.7164205288	3.0784027656
-0.89293516	-0.7174937851	3.0858611779
-1.7923054444	-0.715269171	3.0780558184
0.0019878226	-1.4283023692	3.0749105418
-0.8915307004	-1.4357946857	3.0849898015
-1.7854564256	-1.4273000486	3.075175496
0.005625536	0.0029830296	6.1580883182
-0.8919544541	0.0133746552	6.181077314
-1.7893204865	0.0038759672	6.1588031491
0.0204378847	-0.7181220337	6.1714082998
-0.8916251325	-0.7170296811	6.1910309508
-1.8039702973	-0.717091307	6.1707012781
0.0044697462	-1.4390140944	6.1592169793
-0.8927685234	-1.4476953235	6.1814248052
-1.7899666023	-1.4378483959	6.1598616546

SCALARS	theta	float 1
LOOKUP_TABLE	default
297.627346572
297.6788773377
297.6303410562
297.6491391779
297.6954420639
297.6493565941
297.6316234204
297.6740167583
297.6315925084
304.5220226498
304.5766531772
304.521583745
304.5475863065
304.6032130815
304.5476197246
304.5210707414
304.5772487233
304.5210631241
314.3739674207
314.4442599682
314.3738986319
314.4069811921
314.4773364321
314.4068930968
314.3743119039
314.4442938831
314.3742706996

SCALARS	sig_11	float	1
LOOKUP_TABLE	default
14.2025205358
26.7709673686
15.2825152192
23.6285539075
34.7219273263
23.1221869136
14.6540065919
25.2737164078
14.729175527
-5.3195666365
0.1658545798
-5.3954166902
-0.8299613044
4.8213760919
-0.8001010573
-5.6259672209
0.0075704982
-5.6411909906
-24.6961307587
-23.8995503785
-24.674224898
-24.0482243942
-23.214858084
-24.055359563
-24.6404994332
-23.8805139572
-24.6327675055

SCALARS	sig_22	float	1
LOOKUP_TABLE	default
8.2446798747
19.9463884703
9.1047401347
18.4605707975
28.0152828092
18.4626896059
10.2865320718
18.0714560723
10.3497331612
-4.7834171606
-1.0000499293
-4.8449100929
-0.1008841879
3.8985446116
-0.0977182893
-4.9655196881
-0.8944610969
-4.9669920365
-18.3156668043
-17.6984110644
-18.3008457752
-17.6873523002
-17.0572934924
-17.6809261462
-18.24795478
-17.7401029998
-18.2496617943

SCALARS	sig_33	float	1
LOOKUP_TABLE	default
24.3731835811
55.1184856224
24.9336223864
46.8732105258
76.6087555056
46.6841668844
25.2297065558
54.2480963015
25.2301147909
-6.6411394262
9.7224851914
-6.7025470928
5.3412458101
21.9275609152
5.3441224618
-6.7435593197
9.7777234761
-6.7583115895
-68.8307095515
-64.763193752
-68.8612200277
-66.6051909167
-62.3543881797
-66.585984585
-68.8412976212
-64.7423075048
-68.81745833

SCALARS vonMises	float	1
LOOKUP_TABLE	default
72.1806360117
54.2884511715
71.627175669
59.2556836097
40.5204568702
59.5359450776
71.5054748661
55.6259741262
71.5818578726
56.4559462568
52.0343760045
56.3728781475
53.9813213514
50.9765497166
54.0182072151
56.3496861397
52.1553236318
56.3590770212
66.3293636936
65.324580178
66.4419175281
65.9017103087
64.8556988591
65.8607253749
66.5194888353
65.2449250827
66.5096350773
