# vtk DataFile Version 2.0
Results
ASCII
DATASET UNSTRUCTURED_GRID
POINTS         27           float
0.0	0.0	0.0	
50.0	0.0	0.0	
100.0	0.0	0.0	
0.0	40.0	0.0	
50.0	40.0	0.0	
100.0	40.0	0.0	
0.0	80.0	0.0	
50.0	80.0	0.0	
100.0	80.0	0.0	
0.0	0.0	70.0	
50.0	0.0	70.0	
100.0	0.0	70.0	
0.0	40.0	70.0	
50.0	40.0	70.0	
100.0	40.0	70.0	
0.0	80.0	70.0	
50.0	80.0	70.0	
100.0	80.0	70.0	
0.0	0.0	140.0	
50.0	0.0	140.0	
100.0	0.0	140.0	
0.0	40.0	140.0	
50.0	40.0	140.0	
100.0	40.0	140.0	
0.0	80.0	140.0	
50.0	80.0	140.0	
100.0	80.0	140.0	

CELLS	8	72
 8	0	1	4	3	9	10	13	12	
 8	1	2	5	4	10	11	14	13	
 8	4	5	8	7	13	14	17	16	
 8	3	4	7	6	12	13	16	15	
 8	9	10	13	12	18	19	22	21	
 8	10	11	14	13	19	20	23	22	
 8	13	14	17	16	22	23	26	25	
 8	12	13	16	15	21	22	25	24	

CELL_TYPES	8
 12
 12
 12
 12
 12
 12
 12
 12

POINT_DATA	27
VECTORS	u 	float 
0.0	0.0	0.0
0.002498134	0.0	0.0
0.0050958235	0.0	0.0
0.0	0.007744387	0.0
0.0023962718	0.0076902845	0.0
0.0047287424	0.0080131745	0.0
0.0	0.0166348239	0.0
0.0022257319	0.0144502768	0.0
0.0042401428	0.0170585761	0.0
0.0212216237	0.0285837427	-0.0287628205
0.0025141582	0.0329988671	-0.0090798635
-0.0162263949	0.0289463995	-0.0287940427
0.0213001223	0.0076233593	-0.0168707825
0.0023822037	0.0077314257	0.002254501
-0.0165271293	0.0079432908	-0.0169446825
0.0210533736	-0.0136064019	-0.0286612197
0.0022518801	-0.017268173	-0.0089658757
-0.0165044453	-0.0132906107	-0.0287143917
-0.1181938309	-0.1013108578	-0.0015874451
0.002546791	-0.0962843423	0.0546898222
0.1233110134	-0.1010022672	-0.0016540194
-0.1173294853	0.0074902229	0.0431577415
0.0024235192	0.0076870409	0.0991954829
0.1221713297	0.0078150525	0.043115848
-0.1184989254	0.1164181121	-0.001505448
0.0022985059	0.1115302363	0.0548160121
0.1230787246	0.116733172	-0.0015616592

VECTORS	v 	float 
0.0	0.0	0.0
0.0021334159	0.0	0.0
0.0042691651	0.0	0.0
0.0	0.0017355726	0.0
0.0021285316	0.0017293935	0.0
0.0042556985	0.0017379464	0.0
0.0	0.0034818571	0.0
0.0021317078	0.0034497733	0.0
0.0042625726	0.0034850226	0.0
-5.14026e-05	2.84042e-05	-0.007981172
0.0021311993	5.8339e-05	-0.0077436548
0.004313244	3.12263e-05	-0.0079815433
-5.06379e-05	0.0017314194	-0.0078282105
0.0021310726	0.0017332623	-0.0075915967
0.0043129224	0.0017338376	-0.0078283747
-5.25857e-05	0.0034320589	-0.0079804401
0.0021291072	0.0034105643	-0.0077432105
0.0043109873	0.0034345596	-0.0079810761
-0.0013673807	-0.0011610213	-0.0151315108
0.0021319238	-0.0011433605	-0.0146073303
0.0056315936	-0.0011587697	-0.0151324297
-0.001368916	0.0017312886	-0.0147298272
0.0021306399	0.0017324792	-0.0142029197
0.0056301175	0.0017337004	-0.0147296194
-0.0013695601	0.0046248789	-0.0151315959
0.0021301538	0.0046070969	-0.0146060875
0.005629858	0.0046271382	-0.015132324

VECTORS	a 	float 
0.0	0.0	0.0
0.6857759283	0.0	0.0
1.3712164648	0.0	0.0
0.0	0.5491451007	0.0
0.6846739509	0.5480049426	0.0
1.3696309117	0.5491429385	0.0
0.0	1.0977967269	0.0
0.6860290471	1.0963750192	0.0
1.3718473553	1.0977887691	0.0
0.0033349268	0.003666799	-2.3572598589
0.6851022974	0.0030221529	-2.3580087314
1.3669761574	0.0034874811	-2.3573120954
0.0030245096	0.5485590774	-2.3572904722
0.6854364908	0.548731104	-2.3578615761
1.3677370328	0.5484010033	-2.3572444937
0.0034080621	1.0935857008	-2.3573154626
0.6852020021	1.0943223375	-2.3581840253
1.3670615471	1.0934521962	-2.3573618851
-0.0054125583	-0.0043689227	-4.7110842069
0.6852895499	-0.0053087901	-4.7124145205
1.3759628236	-0.0044909738	-4.711197572
-0.0069847149	0.5488133983	-4.7109183693
0.6852315256	0.5486601909	-4.7118639465
1.377490022	0.5486701245	-4.7108098894
-0.0052417291	1.101976632	-4.711246547
0.6854082246	1.1026570946	-4.7124568961
1.3760528818	1.1018101227	-4.711356669

SCALARS	theta	float 1
LOOKUP_TABLE	default
302.7417974109
302.4568194991
302.7262242501
302.6242933549
302.3718340882
302.6211819624
302.7151686746
302.4883285329
302.717887605
294.5294051947
294.2006345006
294.5315601354
294.3281399592
293.9947384402
294.3283233302
294.5357097362
294.1975130911
294.5353627692
325.5450373292
325.0823156803
325.5450918942
325.2305337658
324.7677508627
325.2304124277
325.543415279
325.0825329408
325.5434538463

SCALARS	sig_11	float	1
LOOKUP_TABLE	default
-81.9725625848
-58.8516163617
-81.0215706353
-68.0660713109
-47.0042495367
-67.9451361592
-81.1626954394
-61.5557005196
-81.6990274239
57.5691579243
85.3543815759
57.5055950695
81.504974183
109.3226420084
81.4923882906
57.1174501069
85.1158008346
57.1368759736
-137.5538538414
-101.1268398072
-137.5549920785
-103.6635885666
-67.1578884456
-103.6508452825
-137.4526070488
-101.0879756745
-137.4714753582

SCALARS	sig_22	float	1
LOOKUP_TABLE	default
-71.6531736571
-50.7812486529
-70.249325808
-56.531155298
-39.0357667855
-55.802139331
-68.5265282409
-53.8216938071
-68.3208198696
44.8106083027
64.5903960256
44.782609447
69.528102313
89.452265171
69.5506101757
44.5336533856
64.7429538519
44.5871283249
-110.8710067274
-84.3672695829
-110.8881385418
-75.2093268192
-48.6714830242
-75.2052071671
-110.7605206899
-84.4234827287
-110.7991122411

SCALARS	sig_33	float	1
LOOKUP_TABLE	default
-121.1234751676
-75.4830490124
-120.3698208515
-93.2868423353
-49.9154233907
-93.1359978053
-119.5773525345
-77.1862848315
-119.8218080651
80.8942458915
140.7196383359
80.803860264
131.0292754359
190.7672601739
130.9831894845
80.7599510439
140.8001294464
80.7228025418
-310.9378131384
-232.6903371845
-310.9913139152
-237.7995431857
-159.344005907
-237.7519652242
-310.9018157581
-232.6707674447
-310.9051025101

SCALARS vonMises	float	1
LOOKUP_TABLE	default
107.3985186999
91.9107810032
108.0521343699
78.833633022
52.2935074783
78.936108305
109.0956059106
90.7109859771
108.9281943886
211.1290798451
174.652199721
211.4844202163
168.8019578863
120.2294722878
168.8336815699
211.8086898446
173.7928471741
211.7001840495
219.7654852412
190.4379401848
219.8522193921
201.1590719132
173.0139473192
201.1547838331
220.0144175165
190.3084148273
219.9576294581
