# vtk DataFile Version 2.0
Results
ASCII
DATASET UNSTRUCTURED_GRID
POINTS         27           float
0.0	0.0	0.0	
50.0	0.0	0.0	
100.0	0.0	0.0	
0.0	40.0	0.0	
50.0	40.0	0.0	
100.0	40.0	0.0	
0.0	80.0	0.0	
50.0	80.0	0.0	
100.0	80.0	0.0	
0.0	0.0	70.0	
50.0	0.0	70.0	
100.0	0.0	70.0	
0.0	40.0	70.0	
50.0	40.0	70.0	
100.0	40.0	70.0	
0.0	80.0	70.0	
50.0	80.0	70.0	
100.0	80.0	70.0	
0.0	0.0	140.0	
50.0	0.0	140.0	
100.0	0.0	140.0	
0.0	40.0	140.0	
50.0	40.0	140.0	
100.0	40.0	140.0	
0.0	80.0	140.0	
50.0	80.0	140.0	
100.0	80.0	140.0	

CELLS	8	72
 8	0	1	4	3	9	10	13	12	
 8	1	2	5	4	10	11	14	13	
 8	4	5	8	7	13	14	17	16	
 8	3	4	7	6	12	13	16	15	
 8	9	10	13	12	18	19	22	21	
 8	10	11	14	13	19	20	23	22	
 8	13	14	17	16	22	23	26	25	
 8	12	13	16	15	21	22	25	24	

CELL_TYPES	8
 12
 12
 12
 12
 12
 12
 12
 12

POINT_DATA	27
VECTORS	u 	float 
0.0	0.0	0.0
-0.0098005988	0.0	0.0
-0.0192913808	0.0	0.0
0.0	-0.0050184485	0.0
-0.009874565	-0.0050495287	0.0
-0.0199538451	-0.0047617338	0.0
0.0	-0.0087796619	0.0
-0.0100517989	-0.0111411374	0.0
-0.0201634795	-0.0084243883	0.0
-0.0045738581	0.0032823163	-0.0270082271
-0.0097670084	0.0064455134	-0.0034714163
-0.0150430293	0.0036345469	-0.0270202766
-0.0046315102	-0.0051164788	-0.011973553
-0.0099024319	-0.0050245784	0.0113667073
-0.0151277443	-0.004814658	-0.0120250389
-0.0047200529	-0.0138068946	-0.026902543
-0.0100181983	-0.0162068296	-0.0033799079
-0.0153085619	-0.0135067565	-0.0269458516
-0.1356013921	-0.1153247801	0.0273574735
-0.0097557528	-0.1131187762	0.0800289236
0.1161340694	-0.1150372594	0.0273041273
-0.1354674536	-0.0052472857	0.0676555165
-0.0098674631	-0.0050541394	0.1204591331
0.1157112203	-0.0049370213	0.0676301694
-0.1358963696	0.1049686761	0.0274203675
-0.00998968	0.1028741707	0.0801528895
0.1159145262	0.105270486	0.0273814467

VECTORS	v 	float 
0.0	0.0	0.0
-0.0001894689	0.0	0.0
-0.000372959	0.0	0.0
0.0	-0.0002362316	0.0
-0.0001772549	-0.0002246812	0.0
-0.0003592066	-0.000237581	0.0
0.0	-0.0004721766	0.0
-0.0001901309	-0.0004494434	0.0
-0.000374918	-0.0004749904	0.0
-0.0005685891	-0.0006055161	0.0001208154
-0.0001823208	-0.0006379781	8.42713e-05
0.0002023675	-0.0006057672	0.0001218633
-0.0005621126	-0.0002295681	0.0001122127
-0.000185088	-0.0002320105	7.95414e-05
0.000193508	-0.0002298704	0.0001123161
-0.0005681311	0.0001462402	0.0001209801
-0.0001818614	0.0001739124	8.48586e-05
0.0002029766	0.0001458271	0.0001218582
0.0003888225	0.00034491	0.0003727896
-0.0001847006	0.0002951063	2.6854e-06
-0.0007577339	0.0003442723	0.0003743577
0.0004025083	-0.0002312189	4.2572e-05
-0.0001832764	-0.0002307535	-0.0003270848
-0.0007696978	-0.0002317064	4.19804e-05
0.0003889829	-0.0008076128	0.0003735956
-0.0001843221	-0.0007563355	2.4272e-06
-0.0007572039	-0.0008078781	0.0003750761

VECTORS	a 	float 
0.0	0.0	0.0
-0.8955454556	0.0	0.0
-1.7903439099	0.0	0.0
0.0	-0.7169041188	0.0
-0.8937072464	-0.7159706246	0.0
-1.7880168207	-0.7170994766	0.0
0.0	-1.4330036126	0.0
-0.8962529127	-1.4324439078	0.0
-1.7918063918	-1.4333747406	0.0
-0.0019883717	-0.0032348944	3.0798200889
-0.8944909856	-0.001547771	3.0823518702
-1.7872426329	-0.0029492569	3.0799237309
-0.0005919606	-0.7165587152	3.0803807147
-0.8950752195	-0.7166734432	3.0829659924
-1.7893324715	-0.7162697524	3.0804331281
-0.0021499244	-1.4301055784	3.07994443
-0.8946146244	-1.4316502048	3.0827298627
-1.7873047697	-1.4298216857	3.0800303858
0.0042491022	0.0033459326	6.1588981956
-0.8948522146	0.0047763744	6.163859493
-1.7939291141	0.0035568183	6.159226464
0.0070536978	-0.7169113275	6.1616009624
-0.8947662291	-0.716718549	6.1659771506
-1.7966168216	-0.7166759035	6.1614022537
0.0039909654	-1.4371376807	6.1591980985
-0.8950626958	-1.4382302877	6.1639997879
-1.7941078795	-1.4368702206	6.1595051789

SCALARS	theta	float 1
LOOKUP_TABLE	default
299.4741171907
299.3725753299
299.4658429424
299.4145463147
299.3071325732
299.4182990754
299.4802214501
299.3697710095
299.4766724319
297.7666272334
297.8246431753
297.7667041657
297.8841650033
297.9409656408
297.8827523663
297.765536234
297.827614002
297.7663949401
325.6119158453
325.8801235888
325.6124144911
325.9326838238
326.2017025912
325.9335398607
325.6132685715
325.8784465061
325.6125732145

SCALARS	sig_11	float	1
LOOKUP_TABLE	default
-46.4588274861
-25.2071411556
-45.2190771011
-32.6694069201
-13.285333822
-32.9545580012
-45.9051057233
-27.5623284012
-46.134354062
42.5652788418
60.0794847033
42.491783764
56.5841135169
74.2614400051
56.6013544758
42.1109991282
59.8231847758
42.1122654871
-102.3544769583
-85.6884442101
-102.3458741996
-87.9703874942
-71.235286794
-87.9734905238
-102.2729793736
-85.6434167684
-102.275950324

SCALARS	sig_22	float	1
LOOKUP_TABLE	default
-42.9308667971
-23.3748708747
-41.5425800059
-27.9788570644
-11.5770900998
-27.6014081319
-39.9335484479
-26.2273060451
-39.7178926618
33.3728798151
45.5157263454
33.3293014521
47.7885954451
60.1931435965
47.8100184192
33.1026079782
45.6602670923
33.1337527395
-80.412100671
-68.7556161525
-80.4158668581
-65.2618403755
-53.5791845702
-65.2619072109
-80.3144377937
-68.806378464
-80.3341564493

SCALARS	sig_33	float	1
LOOKUP_TABLE	default
-58.5703223996
-10.4021893842
-57.7669016123
-27.2434893125
19.2471219207
-27.3314759032
-57.3179576525
-11.7682689036
-57.4051507947
66.9199390265
114.4999620379
66.8453495702
104.3126295628
152.0440692574
104.2966301571
66.7828533533
114.5685046628
66.7531277449
-245.318137454
-195.4761966742
-245.3774549082
-201.4649901045
-151.368337762
-201.4354654359
-245.32432092
-195.4308646861
-245.3067311375

SCALARS vonMises	float	1
LOOKUP_TABLE	default
33.3610732899
38.9688651775
34.2540738289
26.9927791019
38.6483857427
27.088990381
36.0812710443
38.7720772437
36.0990008753
162.3622374393
142.9100179482
162.8067630449
138.3634338653
113.5137495062
138.3202410319
163.1390971214
142.1472119252
163.0737975328
191.1672525077
172.5900020202
191.2937751135
180.1468008103
162.8132965968
180.126327759
191.4374969428
172.4585612907
191.3962108675
