# vtk DataFile Version 2.0
Results
ASCII
DATASET UNSTRUCTURED_GRID
POINTS         27           float
0.0	0.0	0.0	
50.0	0.0	0.0	
100.0	0.0	0.0	
0.0	40.0	0.0	
50.0	40.0	0.0	
100.0	40.0	0.0	
0.0	80.0	0.0	
50.0	80.0	0.0	
100.0	80.0	0.0	
0.0	0.0	70.0	
50.0	0.0	70.0	
100.0	0.0	70.0	
0.0	40.0	70.0	
50.0	40.0	70.0	
100.0	40.0	70.0	
0.0	80.0	70.0	
50.0	80.0	70.0	
100.0	80.0	70.0	
0.0	0.0	140.0	
50.0	0.0	140.0	
100.0	0.0	140.0	
0.0	40.0	140.0	
50.0	40.0	140.0	
100.0	40.0	140.0	
0.0	80.0	140.0	
50.0	80.0	140.0	
100.0	80.0	140.0	

CELLS	8	72
 8	0	1	4	3	9	10	13	12	
 8	1	2	5	4	10	11	14	13	
 8	4	5	8	7	13	14	17	16	
 8	3	4	7	6	12	13	16	15	
 8	9	10	13	12	18	19	22	21	
 8	10	11	14	13	19	20	23	22	
 8	13	14	17	16	22	23	26	25	
 8	12	13	16	15	21	22	25	24	

CELL_TYPES	8
 12
 12
 12
 12
 12
 12
 12
 12

POINT_DATA	27
VECTORS	u 	float 
0.0	0.0	0.0
-0.0150766605	0.0	0.0
-0.0297118803	0.0	0.0
0.0	-0.0125704951	0.0
-0.015105068	-0.0126033959	0.0
-0.0305199687	-0.012372507	0.0
0.0	-0.024051563	0.0
-0.0152711218	-0.0261160056	0.0
-0.0304509328	-0.023811984	0.0
-0.0260648204	-0.020100096	-0.0193189759
-0.0150307427	-0.0182581017	0.0016191371
-0.0041060151	-0.0198193741	-0.0193151196
-0.0259748475	-0.0126491562	-0.0051775603
-0.0151473546	-0.0125826529	0.0157922097
-0.0042452025	-0.0124126976	-0.0052065902
-0.0261662449	-0.0054503798	-0.0192342492
-0.0152286038	-0.0066603901	0.0016878075
-0.0043180469	-0.0052140704	-0.0192620992
-0.1141918028	-0.0968271146	0.0444973191
-0.0150370996	-0.0965800947	0.0788275889
0.0841709501	-0.0966041113	0.0444626424
-0.1141750257	-0.0127544036	0.0692356723
-0.0151191588	-0.0125999867	0.1038645286
0.0839016526	-0.0125102837	0.0692264549
-0.1144292253	0.0714373469	0.0445404141
-0.0152197515	0.0712649642	0.0789260177
0.0840019185	0.0716754833	0.044519957

VECTORS	v 	float 
0.0	0.0	0.0
-5.3629e-06	0.0	0.0
-9.1236e-06	0.0	0.0
0.0	-3.92753e-05	0.0
-1.26128e-05	-5.43022e-05	0.0
-2.6444e-05	-4.13649e-05	0.0
0.0	-8.36855e-05	0.0
-4.7056e-06	-0.0001042267	0.0
-5.9944e-06	-8.76044e-05	0.0
-0.000180237	-0.0002185273	0.0001276055
-1.04417e-05	-0.0002369792	8.12205e-05
0.0001590283	-0.0002206592	0.0001273021
-0.000181451	-4.77763e-05	0.0001059235
-8.0488e-06	-4.56561e-05	6.81583e-05
0.000165543	-4.94883e-05	0.000107452
-0.0001793208	0.0001242192	0.0001269224
-8.8512e-06	0.0001442802	8.07413e-05
0.0001607651	0.0001227973	0.0001267517
0.0003217014	0.0002744794	0.0002201178
-9.6099e-06	0.0002358655	-4.49433e-05
-0.0003410264	0.0002728764	0.0002203656
0.0002950768	-4.52942e-05	1.06595e-05
-9.7439e-06	-4.72878e-05	-0.0002466833
-0.0003144091	-4.70602e-05	1.15078e-05
0.0003234374	-0.0003655103	0.0002191182
-8.3467e-06	-0.0003298434	-4.51513e-05
-0.0003399419	-0.0003673328	0.0002193812

VECTORS	a 	float 
0.0	0.0	0.0
0.8971045683	0.0	0.0
1.7935439056	0.0	0.0
0.0	0.7177847692	0.0
0.8936172652	0.7138709775	0.0
1.7877964572	0.7177311115	0.0
0.0	1.4341141531	0.0
0.8979204988	1.4287910668	0.0
1.7954860478	1.4340086832	0.0
0.0033124526	0.0025818228	-3.079559294
0.8949631311	-0.0007321979	-3.0828689481
1.7868524335	0.0020075987	-3.0797587178
0.0014529977	0.7157339438	-3.0803258088
0.896023376	0.7163189557	-3.082321396
1.7903421197	0.7152158294	-3.0801329052
0.0035856289	1.4292796241	-3.0797901556
0.8952930322	1.4330394831	-3.0833359471
1.7871409073	1.4288171563	-3.0799453404
-0.003901014	-0.0024747041	-6.1558140636
0.8955493207	-0.008928752	-6.1702283757
1.7949506754	-0.0028852632	-6.1561744832
-0.0115341244	0.7165497701	-6.1648097402
0.8953718538	0.716032884	-6.1772172688
1.8023555639	0.7160891109	-6.1644484948
-0.0034084855	1.4355003066	-6.1563101507
0.8959180529	1.4410787281	-6.1703651234
1.7952529894	1.4349896417	-6.1566383439

SCALARS	theta	float 1
LOOKUP_TABLE	default
297.2293819471
297.2363451843
297.2288860265
297.2199108364
297.2225446744
297.2222110693
297.2343364561
297.232026079
297.2332401992
301.8514752014
301.9847120058
301.8509065553
301.9377799177
302.0713401252
301.937115065
301.8509283985
301.9860311519
301.8510777276
319.7258673916
320.0177279121
319.7261324613
319.9182961327
320.2105693923
319.9185382283
319.7262755713
320.0175117905
319.7261008129

SCALARS	sig_11	float	1
LOOKUP_TABLE	default
-5.9065873539
11.0946331626
-4.6129596254
6.289439637
21.4715112255
5.7593982612
-5.3578327621
9.1229332727
-5.354679548
12.68886006
22.0214175961
12.6052346141
20.5938329526
30.119310143
20.6262162385
12.2908654882
21.8120973807
12.278994116
-55.0954231713
-50.6160527998
-55.0755351191
-50.498847129
-45.9672315452
-50.5063377878
-55.0216267528
-50.5878185109
-55.0164607276

SCALARS	sig_22	float	1
LOOKUP_TABLE	default
-9.2510413386
6.5716732342
-8.1058075384
3.9746931592
17.0298585036
4.07009301
-6.6305333617
4.1333906746
-6.5115209658
9.4497994074
15.9807088279
9.3872276311
17.733059418
24.527658681
17.7432337318
9.2122002817
16.1126410276
9.2210840486
-42.5682789553
-39.3074979015
-42.5580870832
-37.5840376745
-34.3023033315
-37.5789641577
-42.4806415468
-39.3589798959
-42.488538752

SCALARS	sig_33	float	1
LOOKUP_TABLE	default
-2.5494920639
38.3122210163
-1.8279329432
26.1827716802
65.685030126
25.9810857885
-1.448588828
37.1654473591
-1.4718351718
20.6079217728
49.6349854391
20.5385119121
43.0984727043
72.368194491
43.0989854492
20.4766811735
49.7020776971
20.4572759665
-142.5850669187
-122.8678936295
-142.6302339822
-125.5707079311
-105.617658469
-125.5473251248
-142.5927023953
-122.8378988801
-142.5686880793

SCALARS vonMises	float	1
LOOKUP_TABLE	default
47.9170091152
37.7983279882
47.3581872299
44.0819351604
39.8341337985
44.3781867795
47.4924978884
39.638761494
47.6431316244
87.6000334532
84.0943003238
87.8244449023
83.7295739719
78.0234311037
83.6958997081
87.9456618337
83.7925824456
87.9474913733
121.4599502128
114.4205538224
121.593546703
117.2200404428
110.5013329606
117.1811709352
121.6995755637
114.3122442068
121.6796376055
