# vtk DataFile Version 2.0
Results
ASCII
DATASET UNSTRUCTURED_GRID
POINTS         27           float
0.0	0.0	0.0	
50.0	0.0	0.0	
100.0	0.0	0.0	
0.0	40.0	0.0	
50.0	40.0	0.0	
100.0	40.0	0.0	
0.0	80.0	0.0	
50.0	80.0	0.0	
100.0	80.0	0.0	
0.0	0.0	70.0	
50.0	0.0	70.0	
100.0	0.0	70.0	
0.0	40.0	70.0	
50.0	40.0	70.0	
100.0	40.0	70.0	
0.0	80.0	70.0	
50.0	80.0	70.0	
100.0	80.0	70.0	
0.0	0.0	140.0	
50.0	0.0	140.0	
100.0	0.0	140.0	
0.0	40.0	140.0	
50.0	40.0	140.0	
100.0	40.0	140.0	
0.0	80.0	140.0	
50.0	80.0	140.0	
100.0	80.0	140.0	

CELLS	8	72
 8	0	1	4	3	9	10	13	12	
 8	1	2	5	4	10	11	14	13	
 8	4	5	8	7	13	14	17	16	
 8	3	4	7	6	12	13	16	15	
 8	9	10	13	12	18	19	22	21	
 8	10	11	14	13	19	20	23	22	
 8	13	14	17	16	22	23	26	25	
 8	12	13	16	15	21	22	25	24	

CELL_TYPES	8
 12
 12
 12
 12
 12
 12
 12
 12

POINT_DATA	27
VECTORS	u 	float 
0.0	0.0	0.0
-0.0104474918	0.0	0.0
-0.0204807478	0.0	0.0
0.0	-0.0103652057	0.0
-0.0104564023	-0.0103946769	0.0
-0.0212092793	-0.0102184875	0.0
0.0	-0.0198724227	0.0
-0.0105912898	-0.0215083549	0.0
-0.0210573299	-0.0197114663	0.0
-0.031887013	-0.0280057625	-0.0059892448
-0.0104055187	-0.0267893605	0.0102423823
0.0109766409	-0.0277951289	-0.0059808483
-0.0318338701	-0.0104243165	0.0053637458
-0.0104965818	-0.0103774461	0.0216835676
0.0109134712	-0.0102477436	0.0053462786
-0.0319558472	0.0069575307	-0.0059266555
-0.0105534914	0.0062276301	0.010290442
0.0108152549	0.0071351235	-0.0059454955
-0.0842409478	-0.0716328791	0.0581212922
-0.0104158647	-0.0718280793	0.0774622323
0.0634562361	-0.0714669192	0.0580983088
-0.0844176241	-0.0105026573	0.0710871041
-0.0104750425	-0.010385959	0.0907197147
0.0634335412	-0.0103200689	0.0710847174
-0.0844205936	0.0507216758	0.058148012
-0.0105519701	0.0509662113	0.0775339512
0.0633313325	0.0508998202	0.0581369326

VECTORS	v 	float 
0.0	0.0	0.0
7.5627e-05	0.0	0.0
0.0001545036	0.0	0.0
0.0	5.00572e-05	0.0
8.17081e-05	5.51825e-05	0.0
0.0001605725	4.97935e-05	0.0
0.0	0.0001033819	0.0
7.3766e-05	0.000107992	0.0
0.0001498598	0.0001031169	0.0
3.71661e-05	4.8015e-06	9.14371e-05
7.93391e-05	1.32394e-05	7.33727e-05
0.0001205281	6.0525e-06	9.17694e-05
4.54488e-05	5.24243e-05	7.76947e-05
7.73321e-05	5.17217e-05	5.85168e-05
0.00011026	5.35502e-05	7.74969e-05
3.67138e-05	9.91214e-05	9.18666e-05
7.86595e-05	9.10134e-05	7.48279e-05
0.0001199551	0.0001000353	9.21321e-05
0.0002310808	0.0001922328	6.55785e-05
7.82723e-05	0.0002021211	1.64192e-05
-7.42202e-05	0.0001931731	6.64315e-05
0.0002480148	5.08372e-05	2.39073e-05
7.85169e-05	5.17631e-05	-2.81242e-05
-9.14199e-05	5.1948e-05	2.31899e-05
0.0002297268	-9.04316e-05	6.68225e-05
7.73332e-05	-9.88125e-05	1.68943e-05
-7.49459e-05	-8.91071e-05	6.75985e-05

VECTORS	a 	float 
0.0	0.0	0.0
-0.8950914548	0.0	0.0
-1.788045084	0.0	0.0
0.0	-0.7200099409	0.0
-0.888456397	-0.7129090822	0.0
-1.7787209555	-0.7198881309	0.0
0.0	-1.4365252233	0.0
-0.8967654846	-1.4284316815	0.0
-1.7923056079	-1.4362813845	0.0
0.0022422653	-0.005331583	3.0747482895
-0.8909885995	0.0016043974	3.0838438853
-1.784902318	-0.0040731222	3.0751125041
0.0067017559	-0.7163779409	3.0785276326
-0.8930965078	-0.7174333542	3.085573042
-1.7921964399	-0.7152623136	3.0781876573
0.0017256565	-1.4283648571	3.0752686348
-0.8917219243	-1.4356365378	3.084883911
-1.7855615281	-1.4273933603	3.0755283375
0.0055389198	0.0029715541	6.1581295177
-0.892142757	0.0131428365	6.1804976781
-1.7896196274	0.0038344658	6.1588258933
0.0199550211	-0.7180356346	6.1710975133
-0.8918173051	-0.7169726186	6.1901605986
-1.8038606222	-0.7170396702	6.170408337
0.0044230272	-1.438837665	6.1592258465
-0.892928788	-1.4473395432	6.1808311905
-1.790243226	-1.4377112719	6.1598536279

SCALARS	theta	float 1
LOOKUP_TABLE	default
297.550955902
297.6022684023
297.5539390234
297.5724086686
297.6184151563
297.5726492315
297.5553096502
297.597360969
297.5552909489
304.4613834659
304.5188059294
304.4609279029
304.4884360758
304.5468683567
304.4884592719
304.4604241215
304.519438241
304.4604140842
314.5594631192
314.6360811909
314.5594031578
314.5959272568
314.6726065022
314.5958407594
314.5598245147
314.6361039052
314.5597806042

SCALARS	sig_11	float	1
LOOKUP_TABLE	default
13.9216464774
26.692632276
15.0163376783
23.4914179778
34.7653108038
22.9797106622
14.3805297604
25.1711791307
14.4547775714
-5.002413588
0.6000800826
-5.0791309379
-0.403210366
5.3672546877
-0.3730379936
-5.3135880434
0.4393340233
-5.3288569836
-25.5151438854
-24.6527328074
-25.4930585908
-24.78251147
-23.8825852698
-24.7896795719
-25.45852371
-24.6333593441
-25.4507837393

SCALARS	sig_22	float	1
LOOKUP_TABLE	default
7.9638336223
19.8558602771
8.8377840037
18.3352770997
28.0469568242
18.3391855665
10.0369528982
17.9515817787
10.1015921161
-4.5411502735
-0.6739311769
-4.6032941105
0.2583983022
4.3446068382
0.2616666881
-4.7261659154
-0.5668420254
-4.7274698338
-18.9590840397
-18.2928645845
-18.9442152267
-18.2339866608
-17.554560707
-18.2274703634
-18.890298236
-18.3351874181
-18.8921686817

SCALARS	sig_33	float	1
LOOKUP_TABLE	default
24.0479017631
55.2707994476
24.6171030306
46.8769326824
77.0723236304
46.6857820174
24.9183362084
54.38587409
24.9179779001
-6.1588344881
10.5984391507
-6.2209962829
6.1449475231
23.1273488989
6.1477617879
-6.2628992102
10.6544279992
-6.2778767295
-70.9080445776
-66.4996194709
-70.939118481
-68.3604830593
-63.7659175755
-68.340924616
-70.9185075785
-66.4784506535
-70.8944967404

SCALARS vonMises	float	1
LOOKUP_TABLE	default
72.3092058284
54.3996188346
71.7499976556
59.4541098007
40.8344770887
59.7362556971
71.6289068679
55.7567840162
71.7074106349
57.3897076684
52.9727364908
57.3087622925
54.9070478626
51.9144695946
54.9425762002
57.2858611666
53.0867009031
57.2956203721
67.9809749863
66.8798556292
68.0948834626
67.4876161848
66.3504827723
67.4463722625
68.1736180823
66.7991431472
68.1634572159
