# vtk DataFile Version 2.0
Results
ASCII
DATASET UNSTRUCTURED_GRID
POINTS         27           float
0.0	0.0	0.0	
50.0	0.0	0.0	
100.0	0.0	0.0	
0.0	40.0	0.0	
50.0	40.0	0.0	
100.0	40.0	0.0	
0.0	80.0	0.0	
50.0	80.0	0.0	
100.0	80.0	0.0	
0.0	0.0	70.0	
50.0	0.0	70.0	
100.0	0.0	70.0	
0.0	40.0	70.0	
50.0	40.0	70.0	
100.0	40.0	70.0	
0.0	80.0	70.0	
50.0	80.0	70.0	
100.0	80.0	70.0	
0.0	0.0	140.0	
50.0	0.0	140.0	
100.0	0.0	140.0	
0.0	40.0	140.0	
50.0	40.0	140.0	
100.0	40.0	140.0	
0.0	80.0	140.0	
50.0	80.0	140.0	
100.0	80.0	140.0	

CELLS	8	72
 8	0	1	4	3	9	10	13	12	
 8	1	2	5	4	10	11	14	13	
 8	4	5	8	7	13	14	17	16	
 8	3	4	7	6	12	13	16	15	
 8	9	10	13	12	18	19	22	21	
 8	10	11	14	13	19	20	23	22	
 8	13	14	17	16	22	23	26	25	
 8	12	13	16	15	21	22	25	24	

CELL_TYPES	8
 12
 12
 12
 12
 12
 12
 12
 12

POINT_DATA	27
VECTORS	u 	float 
0.0	0.0	0.0
-0.0074565239	0.0	0.0
-0.0145308317	0.0	0.0
0.0	-0.0079925831	0.0
-0.0074637528	-0.0080200976	0.0
-0.0152014586	-0.0078603047	0.0
0.0	-0.0152074991	0.0
-0.0075859004	-0.0166925166	0.0
-0.0150533579	-0.0150644256	0.0
-0.0303449704	-0.0269514556	-0.0016738553
-0.0074181388	-0.025864378	0.0129801323
0.0154174333	-0.0267614509	-0.0016656887
-0.0303060566	-0.0080459683	0.008625355
-0.0075005169	-0.0080038463	0.0233658275
0.0153723997	-0.0078866885	0.008610043
-0.0304061455	0.0106784534	-0.0016179855
-0.0075516148	0.0100314527	0.013022651
0.0152712834	0.0108387952	-0.0016348325
-0.0754171176	-0.0641781683	0.0606717558
-0.0074278759	-0.0643798486	0.0771362489
0.0606044723	-0.0640283771	0.0606513825
-0.0756127777	-0.008116017	0.0715380302
-0.0074811783	-0.0080107241	0.0882727212
0.0606189922	-0.0079511238	0.0715364079
-0.075579461	0.0480313923	0.0606944926
-0.0075508109	0.0482769919	0.0772001308
0.0604916709	0.0481923497	0.0606850214

VECTORS	v 	float 
0.0	0.0	0.0
7.04384e-05	0.0	0.0
0.0001365652	0.0	0.0
0.0	6.58026e-05	0.0
6.32098e-05	5.83095e-05	0.0
0.000129951	6.51321e-05	0.0
0.0	0.0001244	0.0
7.28004e-05	0.0001223078	0.0
0.0001435501	0.0001233617	0.0
3.55389e-05	4.28145e-05	0.000115405
6.57212e-05	3.03411e-05	6.05543e-05
9.71452e-05	4.05022e-05	0.0001150414
2.92233e-05	6.2205e-05	8.07509e-05
6.84024e-05	6.30854e-05	2.74333e-05
0.0001063878	6.02079e-05	8.12299e-05
3.63781e-05	8.34276e-05	0.0001146098
6.71842e-05	9.4084e-05	5.89655e-05
9.85822e-05	8.1656e-05	0.0001144227
0.0001988417	0.0001715119	5.51582e-05
6.69332e-05	0.0001622755	-3.16386e-05
-6.54597e-05	0.0001697039	5.451e-05
0.0001824155	6.44595e-05	-2.9843e-06
6.69005e-05	6.27886e-05	-8.75245e-05
-4.80706e-05	6.24123e-05	-2.1714e-06
0.0002011042	-4.31536e-05	5.36718e-05
6.85612e-05	-3.60432e-05	-3.23723e-05
-6.4108e-05	-4.53784e-05	5.30556e-05

VECTORS	a 	float 
0.0	0.0	0.0
0.894321192	0.0	0.0
1.7859207102	0.0	0.0
0.0	0.7208036722	0.0
0.8866056295	0.7126394559	0.0
1.7755116028	0.720651912	0.0
0.0	1.437294627	0.0
0.8963334108	1.4285198821	0.0
1.7911016773	1.436992153	0.0
-0.0041350474	0.0065124412	-3.0723811163
0.8895346596	-0.002012586	-3.0842995286
1.7840623513	0.0049725119	-3.0728052169
-0.009736499	0.7166613413	-3.0777265934
0.8920203952	0.7178538409	-3.0873586574
1.7929036557	0.7152983907	-3.0773307132
-0.0035142538	1.4279676234	-3.0730056208
0.8904370969	1.4366852341	-3.0855747788
1.7848790221	1.4267828374	-3.0733042069
-0.006162987	-0.003060959	-6.1580883545
0.8908745049	-0.0147127108	-6.1844210144
1.7876452378	-0.0041419075	-6.158911505
-0.0232362496	0.718631847	-6.1732915897
0.8905243398	0.7173581038	-6.1958716191
1.8046318125	0.7173855683	-6.1724753564
-0.0047620181	1.440066066	-6.1594094507
0.8918636683	1.4497481072	-6.1848431233
1.7884337442	1.4386583141	-6.1601526465

SCALARS	theta	float 1
LOOKUP_TABLE	default
298.1106232516
298.1628686422
298.1137386508
298.1339980651
298.1810567397
298.1340390519
298.1147294715
298.1580362425
298.1146792406
304.7956659874
304.8372323487
304.7952746301
304.8146896185
304.8572495793
304.8147802005
304.7946795971
304.8377164474
304.7946719449
313.4006048564
313.4425733184
313.4005216475
313.4186974105
313.460719379
313.4186015483
313.4009125463
313.4426126667
313.4008962739

SCALARS	sig_11	float	1
LOOKUP_TABLE	default
15.0506034006
26.5280878233
16.0475803977
23.6919030253
33.8123923452
23.2197658068
15.4658025643
25.158467324
15.5411873255
-6.5528618773
-1.651771047
-6.6235970016
-2.5968240325
2.457925862
-2.5691424118
-6.8338993775
-1.7964854761
-6.8483419839
-20.7659181847
-20.2325701486
-20.745297154
-20.468018869
-19.9016460447
-20.4747354896
-20.7149704752
-20.2154398914
-20.7076489085

SCALARS	sig_22	float	1
LOOKUP_TABLE	default
9.226160818
19.9119112919
10.0129803752
18.5868969612
27.3033081642
18.5837045948
11.1007486286
18.193649266
11.1570479502
-5.7178711692
-2.3501812576
-5.7755381789
-1.606729083
1.960226871
-1.6042960902
-5.8846567625
-2.2525515709
-5.8866386238
-15.2429779404
-14.8273351933
-15.2287913597
-15.0123956595
-14.5858055035
-15.0063115348
-15.1807119546
-14.8657402168
-15.1819581694

SCALARS	sig_33	float	1
LOOKUP_TABLE	default
25.2009290097
53.3221514298
25.7144239204
45.85755918
73.058629311
45.6818784039
25.9858403168
52.5270443196
25.9887323547
-8.5659806535
5.8308248044
-8.6232985015
1.837705979
16.4419773014
1.840374192
-8.6599589591
5.8822170888
-8.6733864628
-58.66693048
-56.0745643756
-58.6946607523
-57.8088970194
-55.0488591391
-57.791194454
-58.6771851677
-56.0555945715
-58.6548363573

SCALARS vonMises	float	1
LOOKUP_TABLE	default
70.1471055006
52.7006049397
69.6329991305
57.2087390974
38.3667234517
57.4683859481
69.5110018096
53.9226155416
69.5794159402
51.3609800858
47.0877220289
51.2732186479
48.9992452362
46.0147490569
49.0392852318
51.2486785431
47.2335198741
51.2577550076
57.8914247995
57.4067423408
57.9954727892
57.7920863361
57.2545563601
57.7536450716
58.0662629797
57.3343452421
58.0576752321
