# vtk DataFile Version 2.0
Results
ASCII
DATASET UNSTRUCTURED_GRID
POINTS         27           float
0.0	0.0	0.0	
50.0	0.0	0.0	
100.0	0.0	0.0	
0.0	40.0	0.0	
50.0	40.0	0.0	
100.0	40.0	0.0	
0.0	80.0	0.0	
50.0	80.0	0.0	
100.0	80.0	0.0	
0.0	0.0	70.0	
50.0	0.0	70.0	
100.0	0.0	70.0	
0.0	40.0	70.0	
50.0	40.0	70.0	
100.0	40.0	70.0	
0.0	80.0	70.0	
50.0	80.0	70.0	
100.0	80.0	70.0	
0.0	0.0	140.0	
50.0	0.0	140.0	
100.0	0.0	140.0	
0.0	40.0	140.0	
50.0	40.0	140.0	
100.0	40.0	140.0	
0.0	80.0	140.0	
50.0	80.0	140.0	
100.0	80.0	140.0	

CELLS	8	72
 8	0	1	4	3	9	10	13	12	
 8	1	2	5	4	10	11	14	13	
 8	4	5	8	7	13	14	17	16	
 8	3	4	7	6	12	13	16	15	
 8	9	10	13	12	18	19	22	21	
 8	10	11	14	13	19	20	23	22	
 8	13	14	17	16	22	23	26	25	
 8	12	13	16	15	21	22	25	24	

CELL_TYPES	8
 12
 12
 12
 12
 12
 12
 12
 12

POINT_DATA	27
VECTORS	u 	float 
0.0	0.0	0.0
0.0039562522	0.0	0.0
0.0079179638	0.0	0.0
0.0	0.0054478919	0.0
0.0039180579	0.0054057093	0.0
0.0078274342	0.0055334783	0.0
0.0	0.0112262548	0.0
0.0038629152	0.0105515719	0.0
0.0076426447	0.0113729716	0.0
0.0113736163	0.0134410516	-0.0106865087
0.0039570325	0.0151202959	-0.0055089598
-0.0034632027	0.0135585485	-0.0107007676
0.0115489489	0.0053917699	-0.0076504546
0.0039153185	0.0054330208	-0.002728673
-0.0037185135	0.0054981114	-0.0076784543
0.0113164422	-0.0027356165	-0.0106572426
0.0038715058	-0.0041760482	-0.0054629866
-0.0035550692	-0.0026315316	-0.0106761687
-0.0316939567	-0.0273590413	-0.0093968768
0.0039718858	-0.0251272913	0.0077971935
0.0396423876	-0.0272558481	-0.009420603
-0.0310772935	0.0053505377	0.0045141471
0.0039304893	0.0054121092	0.0215587242
0.0389373806	0.0054569031	0.0044976085
-0.0317943105	0.0380955144	-0.0093641636
0.0038894511	0.0359147207	0.007837656
0.0395665864	0.0381987321	-0.0093856504

VECTORS	v 	float 
0.0	0.0	0.0
0.0023296214	0.0	0.0
0.0046583789	0.0	0.0
0.0	0.001965507	0.0
0.0023315843	0.0019720508	0.0
0.0046638671	0.0019701385	0.0
0.0	0.0039476918	0.0
0.0023258009	0.0039305559	0.0
0.0046462185	0.0039555012	0.0
0.000483275	0.0005879636	-0.0080417506
0.0023321251	0.0006569809	-0.0077881581
0.0041810592	0.0005936558	-0.0080421851
0.0004768663	0.001968051	-0.0078945979
0.0023293634	0.0019684806	-0.0076534522
0.004181577	0.001973076	-0.007896375
0.0004805422	0.003344113	-0.0080401048
0.0023279111	0.003284067	-0.0077866145
0.004176523	0.0033489986	-0.0080408207
-0.0016513066	-0.0014233608	-0.015413204
0.0023322896	-0.001330792	-0.0145788452
0.0063160767	-0.0014185067	-0.0154143574
-0.0016401901	0.0019651768	-0.0147370705
0.0023306684	0.0019687367	-0.0139099546
0.0063015445	0.0019702419	-0.0147380454
-0.0016560486	0.0053556192	-0.0154116602
0.0023284407	0.0052662793	-0.0145772625
0.0063125105	0.005360526	-0.0154126866

VECTORS	a 	float 
0.0	0.0	0.0
0.1659782351	0.0	0.0
0.3319426834	0.0	0.0
0.0	0.1330939	0.0
0.1659424819	0.1330384125	0.0
0.331895719	0.1331031449	0.0
0.0	0.266203104	0.0
0.1659760127	0.2660653001	0.0
0.3319338972	0.2662191947	0.0
0.0016515115	0.0018933741	-0.5707544222
0.165958728	0.0020794803	-0.570229819
0.3302701683	0.0018999079	-0.5707583249
0.001678811	0.1330604152	-0.5704512712
0.1659645689	0.1330737789	-0.5699492587
0.330245651	0.1330668682	-0.5704527536
0.0016472336	0.2642252035	-0.570754856
0.1659528814	0.2640707407	-0.5702293942
0.3302631553	0.2642324749	-0.5707586618
-0.003702816	-0.0031809478	-1.1401611452
0.1659663693	-0.0029168258	-1.1382792876
0.3356347958	-0.003173225	-1.1401687848
-0.0036341084	0.1330667977	-1.1386221857
0.1659600376	0.1330668986	-1.1367411552
0.3355558412	0.1330737774	-1.1386196385
-0.0037078352	0.2693172129	-1.1401656466
0.1659609363	0.2690482962	-1.1382741801
0.3356288766	0.2693227732	-1.1401725601

SCALARS	theta	float 1
LOOKUP_TABLE	default
301.5483278019
301.3979957098
301.5409448851
301.4909732662
301.3749872684
301.487753628
301.5215770883
301.4261273611
301.5253438329
297.8692856302
297.6291697028
297.8709279452
297.646278326
297.4021567164
297.6470000117
297.8761537767
297.6238376524
297.8753179018
307.7985685796
307.390200392
307.7982734067
307.3953159775
306.985540526
307.394737257
307.7955993237
307.3923013184
307.796127411

SCALARS	sig_11	float	1
LOOKUP_TABLE	default
-32.3728191184
-24.1969540433
-32.0805292584
-27.4015293265
-20.1456569441
-27.2979166667
-31.9212032225
-25.271801052
-32.1587061765
18.5230434329
30.2448860035
18.4982543921
29.7054449704
41.4131084349
29.6948461799
18.361961741
30.1828463912
18.3727330989
-50.9632746773
-33.9530109736
-50.9632059294
-33.6407645533
-16.5778144142
-33.6310911191
-50.9121554287
-33.9513003115
-50.9235166754

SCALARS	sig_22	float	1
LOOKUP_TABLE	default
-27.9787720031
-20.6538046374
-27.500576842
-22.5854634995
-16.5720348447
-22.2818643146
-26.8270382957
-21.7772545878
-26.7792606091
14.0529291189
22.7248692928
14.04093843
25.6641794878
34.3573654652
25.6690018262
13.9490752562
22.7866471823
13.9713647951
-42.0775447756
-29.2146168203
-42.0843836195
-23.8306091882
-10.9269162739
-23.8249748717
-42.0286485144
-29.2429818356
-42.0474376471

SCALARS	sig_33	float	1
LOOKUP_TABLE	default
-55.8539596436
-41.7993870888
-55.5933930537
-47.2934579258
-34.2900358906
-47.1967319504
-55.1581207789
-42.5432179801
-55.2853895359
18.8589757333
40.4275009175
18.8197150863
38.4381687274
59.9435072802
38.4146467811
18.8024538366
40.4683672765
18.7903269522
-114.7070535329
-83.8470838995
-114.7201304763
-83.9301905829
-52.9612736675
-83.906916796
-114.6690332269
-83.8614843726
-114.6774547236

SCALARS vonMises	float	1
LOOKUP_TABLE	default
48.5805441446
40.4621866041
48.7664990014
36.9198942567
23.3946588498
36.9757590689
49.0677695033
40.0463558167
49.0036274197
72.7287081595
58.0786700468
72.8312913785
56.2221932499
35.3386416609
56.2450533908
72.9293787741
57.798264547
72.8908248602
74.5341723119
62.9282186413
74.5545818543
66.5132426592
54.791497403
66.5110081075
74.6076049701
62.8894227949
74.5885656213
