# vtk DataFile Version 2.0
Results
ASCII
DATASET UNSTRUCTURED_GRID
POINTS         27           float
0.0	0.0	0.0	
50.0	0.0	0.0	
100.0	0.0	0.0	
0.0	40.0	0.0	
50.0	40.0	0.0	
100.0	40.0	0.0	
0.0	80.0	0.0	
50.0	80.0	0.0	
100.0	80.0	0.0	
0.0	0.0	70.0	
50.0	0.0	70.0	
100.0	0.0	70.0	
0.0	40.0	70.0	
50.0	40.0	70.0	
100.0	40.0	70.0	
0.0	80.0	70.0	
50.0	80.0	70.0	
100.0	80.0	70.0	
0.0	0.0	140.0	
50.0	0.0	140.0	
100.0	0.0	140.0	
0.0	40.0	140.0	
50.0	40.0	140.0	
100.0	40.0	140.0	
0.0	80.0	140.0	
50.0	80.0	140.0	
100.0	80.0	140.0	

CELLS	8	72
 8	0	1	4	3	9	10	13	12	
 8	1	2	5	4	10	11	14	13	
 8	4	5	8	7	13	14	17	16	
 8	3	4	7	6	12	13	16	15	
 8	9	10	13	12	18	19	22	21	
 8	10	11	14	13	19	20	23	22	
 8	13	14	17	16	22	23	26	25	
 8	12	13	16	15	21	22	25	24	

CELL_TYPES	8
 12
 12
 12
 12
 12
 12
 12
 12

POINT_DATA	27
VECTORS	u 	float 
0.0	0.0	0.0
-0.0112085006	0.0	0.0
-0.0219948758	0.0	0.0
0.0	-0.0109417323	0.0
-0.01121828	-0.0109719544	0.0
-0.0227385026	-0.0107908746	0.0
0.0	-0.021003235	0.0
-0.0113564545	-0.02268133	0.0
-0.0225865506	-0.0208368868	0.0
-0.0321274933	-0.0280964757	-0.0072110924
-0.0111657224	-0.0268410301	0.0094640783
0.0096946688	-0.0278799314	-0.0072027202
-0.0320694045	-0.0110026293	0.0044318803
-0.0112591665	-0.0109542837	0.0211948513
0.0096251229	-0.010821085	0.004413739
-0.0321986413	0.0058865018	-0.0071465998
-0.0113178558	0.0051307388	0.0095137969
0.0095289512	0.0060690297	-0.0071660373
-0.0867892509	-0.0737814181	0.0572909622
-0.011176103	-0.0739701185	0.0775618323
0.0644850766	-0.0736107517	0.0572671853
-0.086956686	-0.011083316	0.070949652
-0.0112370481	-0.010963381	0.0915173582
0.0644479735	-0.0108955941	0.0709469853
-0.0869738863	0.0517113401	0.0573188874
-0.0113160583	0.0519510271	0.0776358265
0.0643566123	0.0518944787	0.0573072859

VECTORS	v 	float 
0.0	0.0	0.0
6.28619e-05	0.0	0.0
0.0001218488	0.0	0.0
0.0	5.72603e-05	0.0
5.4336e-05	4.81901e-05	0.0
0.0001118458	5.67534e-05	0.0
0.0	0.0001081616	0.0
6.51078e-05	0.0001013742	0.0
0.0001282329	0.000107388	0.0
1.1233e-06	8.9696e-06	0.0001168302
5.7475e-05	6.046e-07	7.05072e-05
0.0001149903	7.0091e-06	0.0001164071
-2.684e-06	5.26679e-05	8.85889e-05
6.03595e-05	5.4039e-05	4.4175e-05
0.0001223049	5.09798e-05	8.90141e-05
1.8167e-06	9.80221e-05	0.0001159073
5.86788e-05	0.0001059116	6.92178e-05
0.0001161335	9.65305e-05	0.0001156915
0.000230476	0.0001955705	5.96959e-05
5.90611e-05	0.0001897541	-3.02715e-05
-0.0001127818	0.000194377	5.89411e-05
0.0002168918	5.49639e-05	-3.6711e-06
5.86354e-05	5.33701e-05	-9.07927e-05
-9.91454e-05	5.3549e-05	-2.8599e-06
0.0002320708	-8.61384e-05	5.81206e-05
6.01019e-05	-8.24433e-05	-3.07595e-05
-0.0001119791	-8.77215e-05	5.74554e-05

VECTORS	a 	float 
0.0	0.0	0.0
0.8953145974	0.0	0.0
1.788649404	0.0	0.0
0.0	0.7197807892	0.0
0.8890031606	0.7129934519	0.0
1.7796810456	0.7196641756	0.0
0.0	1.4362789815	0.0
0.896898326	1.4284381058	0.0
1.7926670991	1.4360458933	0.0
-0.0016452532	0.0050333533	-3.075260025
0.8914129458	-0.0015319631	-3.0837426806
1.7851064798	0.003845279	-3.0756074891
-0.0058352737	0.716302431	-3.0787203718
0.8934127995	0.7173117815	-3.0852180437
1.7920099745	0.7152484491	-3.078394072
-0.0011535496	1.4284551843	-3.0757506558
0.8921050604	1.4353731684	-3.0847222935
1.7857281289	1.4275363526	-3.0759996966
-0.0053718567	-0.0029192013	-6.1578789697
0.8925081505	-0.0127404197	-6.1794788126
1.7901998227	-0.0037357876	-6.1585398399
-0.019108925	0.7178745426	-6.170478895
0.8921979558	0.7168668674	-6.1888981192
1.8037555631	0.7169335332	-6.1698233353
-0.004320298	1.4384768496	-6.1589133136
0.8932512023	1.4467082665	-6.1797911448
1.7907904009	1.4374138248	-6.1595092791

SCALARS	theta	float 1
LOOKUP_TABLE	default
297.4186299413
297.4688866531
297.4215186345
297.4390226189
297.4839979392
297.4393473046
297.4230203446
297.4640023188
297.4230002562
304.337296123
304.4001844451
304.3368240636
304.3672513239
304.4311354794
304.3672460123
304.3363591064
304.4008586524
304.3363491853
314.9164427036
315.0057546351
314.9163934763
314.9599177436
315.0492969488
314.959838945
314.9168144565
315.0057714505
314.9167626489

SCALARS	sig_11	float	1
LOOKUP_TABLE	default
13.3028629122
26.4395332465
14.4232586576
23.1298109451
34.7318248091
22.608615631
13.77333959
24.8758299352
13.8461874125
-4.3189717312
1.5009907232
-4.3971580191
0.4836055536
6.4752180831
0.5144050853
-4.6384512423
1.33576107
-4.6538540928
-27.1247116305
-26.136196074
-27.1023303218
-26.2262013608
-25.198874055
-26.2334823148
-27.0665167597
-26.1161528149
-27.0587245162

SCALARS	sig_22	float	1
LOOKUP_TABLE	default
7.3626296364
19.596280575
8.2609074882
18.0138515726
28.0091626727
18.0207564759
9.4901970853
17.6406165288
9.557518232
-4.0126572995
0.0108797202
-4.0758165896
1.0049127035
5.2526798528
1.0084959481
-4.2027080301
0.1205124203
-4.2036859611
-20.229685035
-19.4680794177
-20.2147410073
-19.3159861988
-18.540495223
-19.3093970609
-20.1591049831
-19.5114421733
-20.1612192428

SCALARS	sig_33	float	1
LOOKUP_TABLE	default
23.2993100804
55.394681653
23.8837856442
46.726451027
77.7641715646
46.5315164587
24.1932418605
54.4847642009
24.1916742105
-5.1141070198
12.3939626817
-5.1774528971
7.8052432587
25.5427818326
7.8080803822
-5.2209121015
12.451144414
-5.2363009883
-74.9925844652
-69.903302154
-75.0246577218
-71.7974454282
-66.5169282698
-71.7774125726
-75.0030402171
-69.881479428
-74.978662358

SCALARS vonMises	float	1
LOOKUP_TABLE	default
72.3222446138
54.4456846628
71.7520878752
59.6563734817
41.3495205305
59.9435263693
71.6334458589
55.8405468772
71.7153080126
59.179900888
54.7743488636
59.1036288759
56.682140107
53.6911378297
56.7151987887
59.0821139277
54.8729309404
59.0921102399
71.2493181657
69.8988058665
71.3657990616
70.5947045903
69.2169767107
70.5529140389
71.4468020468
69.8156833061
71.436122705
