# vtk DataFile Version 2.0
Results
ASCII
DATASET UNSTRUCTURED_GRID
POINTS         27           float
0.0	0.0	0.0	
50.0	0.0	0.0	
100.0	0.0	0.0	
0.0	40.0	0.0	
50.0	40.0	0.0	
100.0	40.0	0.0	
0.0	80.0	0.0	
50.0	80.0	0.0	
100.0	80.0	0.0	
0.0	0.0	70.0	
50.0	0.0	70.0	
100.0	0.0	70.0	
0.0	40.0	70.0	
50.0	40.0	70.0	
100.0	40.0	70.0	
0.0	80.0	70.0	
50.0	80.0	70.0	
100.0	80.0	70.0	
0.0	0.0	140.0	
50.0	0.0	140.0	
100.0	0.0	140.0	
0.0	40.0	140.0	
50.0	40.0	140.0	
100.0	40.0	140.0	
0.0	80.0	140.0	
50.0	80.0	140.0	
100.0	80.0	140.0	

CELLS	8	72
 8	0	1	4	3	9	10	13	12	
 8	1	2	5	4	10	11	14	13	
 8	4	5	8	7	13	14	17	16	
 8	3	4	7	6	12	13	16	15	
 8	9	10	13	12	18	19	22	21	
 8	10	11	14	13	19	20	23	22	
 8	13	14	17	16	22	23	26	25	
 8	12	13	16	15	21	22	25	24	

CELL_TYPES	8
 12
 12
 12
 12
 12
 12
 12
 12

POINT_DATA	27
VECTORS	u 	float 
0.0	0.0	0.0
0.0003427376	0.0	0.0
0.0009800579	0.0	0.0
0.0	-0.0014582259	0.0
0.0003384065	-0.0014781594	0.0
0.0004655935	-0.0013583383	0.0
0.0	-0.002328171	0.0
0.0002456626	-0.0034507214	0.0
0.0005843839	-0.0022219352	0.0
-0.0243593289	-0.0219029255	0.0080084254
0.0003723208	-0.021094032	0.0190594339
0.0250340403	-0.0217598487	0.0080152144
-0.0243417764	-0.0014973519	0.0158222387
0.0003099567	-0.0014661295	0.026944542
0.025013756	-0.0013773599	0.0158110262
-0.0244044016	0.0187710129	0.0080496814
0.0002717761	0.0182935779	0.0190899656
0.024923143	0.0188919504	0.0080371293
-0.056318486	-0.0479724115	0.0650157471
0.0003644184	-0.0481465209	0.076492456
0.0570803422	-0.0478597945	0.0650008423
-0.0565030338	-0.0015491377	0.0724223927
0.0003245141	-0.0014697853	0.0841085391
0.0571278819	-0.0014250077	0.0724216758
-0.0564405469	0.0449385501	0.0650310425
0.0002719581	0.0451454414	0.0765389844
0.0569953915	0.0450598531	0.065024447

VECTORS	v 	float 
0.0	0.0	0.0
8.24881e-05	0.0	0.0
0.000168056	0.0	0.0
0.0	5.50777e-05	0.0
9.0323e-05	6.27933e-05	0.0
0.000177969	5.53096e-05	0.0
0.0	0.0001147855	0.0
8.05088e-05	0.0001221075	0.0
0.0001626832	0.0001153438	0.0
8.27606e-05	4.76366e-05	4.713e-05
8.74096e-05	5.55425e-05	4.54329e-05
9.11324e-05	4.93215e-05	4.7346e-05
8.80688e-05	5.88921e-05	4.26774e-05
8.4883e-05	5.78776e-05	3.968e-05
8.26734e-05	6.03859e-05	4.23045e-05
8.21764e-05	6.89822e-05	4.74839e-05
8.63928e-05	6.13313e-05	4.71578e-05
9.01095e-05	7.0253e-05	4.77086e-05
0.0001758142	0.0001339955	2.38213e-05
8.61678e-05	0.0001427708	2.14366e-05
-3.1629e-06	0.0001352952	2.44822e-05
0.0001915986	5.6897e-05	1.76309e-05
8.64046e-05	5.81402e-05	1.23478e-05
-1.92172e-05	5.83753e-05	1.6832e-05
0.0001740788	-2.0012e-05	2.51324e-05
8.49307e-05	-2.67991e-05	2.20799e-05
-4.1448e-06	-1.83352e-05	2.57992e-05

VECTORS	a 	float 
0.0	0.0	0.0
-0.893017273	0.0	0.0
-1.7814962892	0.0	0.0
0.0	-0.7229259294	0.0
-0.8820867166	-0.711772453	0.0
-1.7680030058	-0.7226957305	0.0
0.0	-1.4390996473	0.0
-0.8960128148	-1.4286695455	0.0
-1.7893943125	-1.4386316013	0.0
0.0094701905	-0.0094556547	3.0667546371
-0.8862125781	0.003754243	3.0867480897
-1.7832873424	-0.0071072341	3.0673376943
0.0180197692	-0.7173673624	3.0763349179
-0.889816076	-0.7189693927	3.0934409324
-1.7962407184	-0.7153033843	3.0757921039
0.0085677322	-1.4270911771	3.0676853316
-0.8875916195	-1.4400520992	3.0887303365
-1.7845380702	-1.4253147918	3.0680839421
0.0049503402	0.0025221796	6.1574287571
-0.8881303522	0.0181893628	6.1954364135
-1.7807470917	0.0041613439	6.1586010209
0.0290107428	-0.7202419204	6.1784765285
-0.8876629104	-0.7183717614	6.2116156902
-1.8049248153	-0.7183377095	6.177310979
0.0027741968	-1.4425823757	6.1594109321
-0.8896384866	-1.4554651768	6.1961275935
-1.7819366219	-1.4404183509	6.1604747812

SCALARS	theta	float 1
LOOKUP_TABLE	default
299.6986792208
299.7443791133
299.701495249
299.7206262536
299.7618830807
299.7204823614
299.702022541
299.7401395181
299.7019112034
305.1623394119
305.1836169775
305.162060936
305.171910209
305.1940548026
305.1720509077
305.1614044974
305.1838786334
305.1613966439
311.1770748064
311.1825266745
311.1770068534
311.1772279116
311.1827186903
311.1771580761
311.1772798164
311.1825392316
311.1773145933

SCALARS	sig_11	float	1
LOOKUP_TABLE	default
13.685327658
22.3081878881
14.4448867658
20.2130985409
27.8076196073
19.8487576872
14.0008522275
21.2780429639
14.0644906509
-6.8601620788
-3.2928663043
-6.9150315552
-4.0512273838
-0.365766211
-4.0300466664
-7.0725674906
-3.4013167892
-7.0839106774
-13.5763062629
-13.3884285062
-13.5602795373
-13.6902399311
-13.4783841578
-13.695636823
-13.5377786777
-13.375886636
-13.5321688874

SCALARS	sig_22	float	1
LOOKUP_TABLE	default
8.8707399324
16.8987300218
9.4635737164
15.9343903205
22.4750746826
15.9271259602
10.289658701
15.6027369945
10.3312483126
-5.8364713405
-3.3996840503
-5.8815086107
-2.9389638203
-0.3499802721
-2.9375265015
-5.9620878377
-3.3245356819
-5.9641268791
-9.7652032788
-9.61605791
-9.7539222667
-9.9910826601
-9.8348121785
-9.9864083657
-9.7177385956
-9.6451415606
-9.7184621637

SCALARS	sig_33	float	1
LOOKUP_TABLE	default
22.2649432343
43.4486098614
22.6520253015
37.9078167311
58.4049715547
37.7728043267
22.857572931
42.8522466272
22.863048824
-9.297100752
0.9058780056
-9.3418169564
-2.0962467857
8.2680623056
-2.0941698255
-9.3682196234
0.9461046281
-9.3781433637
-39.2852431748
-38.6089003421
-39.3060994351
-39.9852160954
-39.1830337904
-39.9718991014
-39.2934559273
-38.5947299487
-39.2761837747

SCALARS vonMises	float	1
LOOKUP_TABLE	default
57.496007921
43.158810498
57.1005456118
46.4972886736
30.3947038
46.6977566966
56.9987482299
44.081033889
57.0485927618
38.4531656126
35.0959595452
38.3757567873
36.6168181419
34.0639305833
36.6539494497
38.3541528078
35.242469804
38.3612216563
40.3983049692
40.5592307613
40.4776812063
40.675975654
40.7885521596
40.6460161218
40.5306279725
40.5056317135
40.5245058774
