# vtk DataFile Version 2.0
Results
ASCII
DATASET UNSTRUCTURED_GRID
POINTS         27           float
0.0	0.0	0.0	
50.0	0.0	0.0	
100.0	0.0	0.0	
0.0	40.0	0.0	
50.0	40.0	0.0	
100.0	40.0	0.0	
0.0	80.0	0.0	
50.0	80.0	0.0	
100.0	80.0	0.0	
0.0	0.0	70.0	
50.0	0.0	70.0	
100.0	0.0	70.0	
0.0	40.0	70.0	
50.0	40.0	70.0	
100.0	40.0	70.0	
0.0	80.0	70.0	
50.0	80.0	70.0	
100.0	80.0	70.0	
0.0	0.0	140.0	
50.0	0.0	140.0	
100.0	0.0	140.0	
0.0	40.0	140.0	
50.0	40.0	140.0	
100.0	40.0	140.0	
0.0	80.0	140.0	
50.0	80.0	140.0	
100.0	80.0	140.0	

CELLS	8	72
 8	0	1	4	3	9	10	13	12	
 8	1	2	5	4	10	11	14	13	
 8	4	5	8	7	13	14	17	16	
 8	3	4	7	6	12	13	16	15	
 8	9	10	13	12	18	19	22	21	
 8	10	11	14	13	19	20	23	22	
 8	13	14	17	16	22	23	26	25	
 8	12	13	16	15	21	22	25	24	

CELL_TYPES	8
 12
 12
 12
 12
 12
 12
 12
 12

POINT_DATA	27
VECTORS	u 	float 
0.0	0.0	0.0
-0.0148480599	0.0	0.0
-0.0292639887	0.0	0.0
0.0	-0.0120357835	0.0
-0.0148805385	-0.012067793	0.0
-0.0300628381	-0.0118311118	0.0
0.0	-0.0229597171	0.0
-0.0150488751	-0.0250629514	0.0
-0.0300197306	-0.0227079273	0.0
-0.0239709701	-0.0177375637	-0.0205887666
-0.0148027181	-0.015778512	0.0007790549
-0.0057422412	-0.0174484024	-0.0205862809
-0.0238895586	-0.012116255	-0.0062488363
-0.0149219031	-0.0120470615	0.015132767
-0.0058818619	-0.0118723515	-0.0062799988
-0.0240772335	-0.0067521288	-0.0205014449
-0.0150067384	-0.0080635382	0.0008502315
-0.0059603795	-0.0065085841	-0.0205308167
-0.1174198108	-0.0995590506	0.0423851512
-0.0148076912	-0.0991668813	0.0790002771
0.0878573955	-0.0993288398	0.0423486042
-0.1173819709	-0.0122245828	0.0690062036
-0.0148929114	-0.0120656644	0.1059094689
0.0875621506	-0.0119728627	0.0689954693
-0.1176639853	0.075231292	0.0424304577
-0.0149961642	0.0749178491	0.0791017852
0.0876826502	0.0754768182	0.0424082477

VECTORS	v 	float 
0.0	0.0	0.0
-2.34643e-05	0.0	0.0
-4.48958e-05	0.0	0.0
0.0	-5.9687e-05	0.0
-3.08047e-05	-7.51864e-05	0.0
-6.31609e-05	-6.19062e-05	0.0
0.0	-0.0001246357	0.0
-2.27952e-05	-0.0001458824	0.0
-4.17339e-05	-0.0001288341	0.0
-0.0002222236	-0.0002627189	0.0001276463
-2.86333e-05	-0.0002835656	8.15598e-05
0.0001645323	-0.0002649448	0.0001273646
-0.0002229112	-6.84522e-05	0.0001077383
-2.61928e-05	-6.62902e-05	7.09318e-05
0.0001708033	-7.0246e-05	0.0001093526
-0.0002212435	0.0001270897	0.0001269388
-2.69621e-05	0.0001495574	8.10762e-05
0.0001663568	0.0001255958	0.0001267854
0.0003321816	0.0002845562	0.0002431305
-2.78238e-05	0.0002411827	-4.62164e-05
-0.0003879075	0.0002828643	0.0002434283
0.0003050242	-6.58967e-05	1.20674e-05
-2.79319e-05	-6.79683e-05	-0.0002690114
-0.0003607598	-6.77523e-05	1.29564e-05
0.0003339927	-0.0004168079	0.0002421061
-2.64946e-05	-0.0003764955	-4.64349e-05
-0.0003867581	-0.0004187174	0.000242422

VECTORS	a 	float 
0.0	0.0	0.0
0.8968482304	0.0	0.0
1.7930090265	0.0	0.0
0.0	0.7176480925	0.0
0.8936137982	0.7142194679	0.0
1.7878032535	0.7176373869	0.0
0.0	1.4339399347	0.0
0.897652536	1.4294033575	0.0
1.7948856761	1.4339165819	0.0
0.0030853319	0.0027073146	-3.0795871346
0.894875035	-0.000350471	-3.0827913878
1.7869078901	0.0021781224	-3.0797716886
0.001293491	0.715876776	-3.0803229015
0.8958625133	0.7163847771	-3.0824415187
1.79018168	0.7153938571	-3.0801710474
0.0033414551	1.429413989	-3.0798016175
0.8951720807	1.432817762	-3.0832473046
1.7871595925	1.4289783943	-3.0799461546
-0.0039557299	-0.0026152268	-6.1563158358
0.895427859	-0.0082410018	-6.1691889824
1.7947660261	-0.0029947737	-6.1566740112
-0.0108092444	0.7166193523	-6.1642790803
0.8952644691	0.7161542465	-6.1753771846
1.8014087567	0.7161936712	-6.1639428003
-0.0034992689	1.4357867142	-6.1567823424
0.8957724374	1.4406230181	-6.1693276121
1.7950495376	1.4353135944	-6.1571098407

SCALARS	theta	float 1
LOOKUP_TABLE	default
297.4034615901
297.4000368053
297.4021442674
297.3878837032
297.3801082128
297.3905606226
297.4086981159
297.3956822484
297.4072406771
301.3775506601
301.5153408195
301.3770009889
301.4736793399
301.6116521205
301.4728883439
301.3770041775
301.5168127913
301.3772224936
320.4547829405
320.770239676
320.4551072261
320.6749299384
320.9908856702
320.6752491726
320.4552228459
320.7699364066
320.4550089935

SCALARS	sig_11	float	1
LOOKUP_TABLE	default
-10.2093679881
7.2822407563
-8.9115434222
2.2139428661
17.871774656
1.7000976778
-9.659671694
5.2660503731
-9.6754653742
16.1687259985
26.2145168855
16.0859900367
24.6293266442
34.8673675503
24.6608383057
15.7625777763
26.0000080004
15.7519241353
-60.2338734271
-54.8197281641
-60.2151572748
-54.8293080551
-49.3612986946
-54.8366079057
-60.1585085911
-54.7901466937
-60.1541149999

SCALARS	sig_22	float	1
LOOKUP_TABLE	default
-12.8555051721
3.4115165708
-11.6803351617
0.6165206329
14.0640609028
0.7345578284
-10.1869995868
0.9226160164
-10.0568551586
12.2324007368
19.2575962259
12.171699082
21.0818565337
28.372771492
21.0933399545
11.9899680665
19.3915783143
12.0011170314
-46.6744166606
-42.7701500556
-46.6656625966
-40.8327297844
-36.9068459542
-40.8282312618
-46.585081684
-42.822090616
-46.5941478638

SCALARS	sig_33	float	1
LOOKUP_TABLE	default
-8.4735542587
33.3807997974
-7.7390263378
20.71794843
61.1780808736
20.5222502201
-7.3547581669
32.2095493908
-7.3820557784
25.8943571207
56.9315078878
25.8249056268
50.0178012942
81.292775153
50.0172827949
25.761107762
56.9994013518
25.7409906348
-154.4421378831
-131.6797433117
-154.4892274937
-134.6564464524
-111.6544550948
-134.6327911154
-154.449295736
-131.6483450177
-154.4258276941

SCALARS vonMises	float	1
LOOKUP_TABLE	default
41.5622758954
33.6806817189
41.0383034418
39.724620233
38.8569943088
40.0162751139
41.295685092
35.5890185322
41.4659066431
94.4604415536
90.040322924
94.7489441538
89.149506235
82.0431273345
89.1065934217
94.9100903016
89.6737767063
94.9058242582
129.8226231385
121.5931319594
129.9565709575
124.8661168434
117.0514018407
124.8289765886
130.0662037217
121.4819081896
130.0443058319
