# vtk DataFile Version 2.0
Results
ASCII
DATASET UNSTRUCTURED_GRID
POINTS         27           float
0.0	0.0	0.0	
50.0	0.0	0.0	
100.0	0.0	0.0	
0.0	40.0	0.0	
50.0	40.0	0.0	
100.0	40.0	0.0	
0.0	80.0	0.0	
50.0	80.0	0.0	
100.0	80.0	0.0	
0.0	0.0	70.0	
50.0	0.0	70.0	
100.0	0.0	70.0	
0.0	40.0	70.0	
50.0	40.0	70.0	
100.0	40.0	70.0	
0.0	80.0	70.0	
50.0	80.0	70.0	
100.0	80.0	70.0	
0.0	0.0	140.0	
50.0	0.0	140.0	
100.0	0.0	140.0	
0.0	40.0	140.0	
50.0	40.0	140.0	
100.0	40.0	140.0	
0.0	80.0	140.0	
50.0	80.0	140.0	
100.0	80.0	140.0	

CELLS	8	72
 8	0	1	4	3	9	10	13	12	
 8	1	2	5	4	10	11	14	13	
 8	4	5	8	7	13	14	17	16	
 8	3	4	7	6	12	13	16	15	
 8	9	10	13	12	18	19	22	21	
 8	10	11	14	13	19	20	23	22	
 8	13	14	17	16	22	23	26	25	
 8	12	13	16	15	21	22	25	24	

CELL_TYPES	8
 12
 12
 12
 12
 12
 12
 12
 12

POINT_DATA	27
VECTORS	u 	float 
0.0	0.0	0.0
-0.0064144064	0.0	0.0
-0.01245808	0.0	0.0
0.0	-0.0071404782	0.0
-0.0064210865	-0.0071670745	0.0
-0.0131079601	-0.0070128359	0.0
0.0	-0.0135297966	0.0
-0.0065391588	-0.014964421	0.0
-0.0129628359	-0.0133922288	0.0
-0.0296630568	-0.0264152503	-0.0002855354
-0.0063771887	-0.0253688572	0.0138561055
0.0168202603	-0.0262319247	-0.0002775109
-0.0296282471	-0.0071918856	0.0096655653
-0.0064567541	-0.007151321	0.0238923055
0.0167801383	-0.0070381988	0.0096508967
-0.0297218474	0.0118565408	-0.0002317987
-0.0065059745	0.0112349376	0.0138968608
0.0166790812	0.0120112885	-0.000248025
-0.0726300806	-0.0618186455	0.0613917878
-0.0063867125	-0.062019264	0.0770377537
0.0598984044	-0.0616741339	0.0613722232
-0.0728283504	-0.0072592851	0.0716739888
-0.0064380983	-0.0071576834	0.0875823168
0.059921667	-0.0071001738	0.0716725556
-0.0727867354	0.047382412	0.0614133401
-0.0065053316	0.0476252914	0.0770991168
0.0597895563	0.0475377501	0.0614043303

VECTORS	v 	float 
0.0	0.0	0.0
7.0292e-05	0.0	0.0
0.0001362277	0.0	0.0
0.0	6.65265e-05	0.0
6.30602e-05	5.90896e-05	0.0
0.0001296872	6.58761e-05	0.0
0.0	0.0001258729	0.0
7.26522e-05	0.0001238462	0.0
0.0001432072	0.0001248712	0.0
3.91943e-05	4.75122e-05	0.0001123582
6.55784e-05	3.5169e-05	5.84613e-05
9.3214e-05	4.52147e-05	0.0001119949
3.28953e-05	6.296e-05	7.81787e-05
6.82556e-05	6.38373e-05	2.57536e-05
0.0001024121	6.09752e-05	7.86455e-05
4.00238e-05	8.02354e-05	0.0001115661
6.70294e-05	9.07667e-05	5.68705e-05
9.46381e-05	7.84752e-05	0.0001113794
0.0001909721	0.0001649952	5.01888e-05
6.67947e-05	0.0001560012	-3.11948e-05
-5.78697e-05	0.0001632009	4.95346e-05
0.0001747499	6.52065e-05	-3.584e-06
6.67563e-05	6.35461e-05	-8.27533e-05
-4.06894e-05	6.31736e-05	-2.7765e-06
0.0001932241	-3.51396e-05	4.87028e-05
6.8412e-05	-2.82572e-05	-3.19249e-05
-5.65289e-05	-3.73523e-05	4.80826e-05

VECTORS	a 	float 
0.0	0.0	0.0
0.8940705147	0.0	0.0
1.785219168	0.0	0.0
0.0	0.721083094	0.0
0.8859645695	0.7125394104	0.0
1.7743978696	0.7209214402	0.0
0.0	1.4375734787	0.0
0.8961985381	1.4285343899	0.0
1.7907155247	1.4372515294	0.0
-0.0047876524	0.0069094935	-3.0716047612
0.889037417	-0.0021462009	-3.0844569269
1.7837804582	0.0052733034	-3.0720491623
-0.01076155	0.7167568505	-3.0774525639
0.8916566328	0.7179989595	-3.0879365338
1.7931412208	0.7153092935	-3.0770380237
-0.0041311908	1.4278358772	-3.0722652332
0.8899976926	1.4370404246	-3.085812579
1.784650929	1.4265780353	-3.072576895
-0.0063777421	-0.003091814	-6.1581176311
0.8904436483	-0.0152461458	-6.1857636063
1.7869770009	-0.0042478607	-6.1589840726
-0.0243532369	0.7188364423	-6.1740404671
0.8900835874	0.7174895346	-6.197778883
1.8048933002	0.7175041052	-6.1731810508
-0.0048787098	1.4404878011	-6.1595160683
0.8915027382	1.450567647	-6.1862156949
1.787822339	1.4389833023	-6.1602984659

SCALARS	theta	float 1
LOOKUP_TABLE	default
298.3150651848
298.3669873194
298.3181801629
298.3386458622
298.3854473412
298.3386434521
298.3190815188
298.3622024689
298.3190174848
304.8750373387
304.9125820132
304.8746647112
304.8921275836
304.9306537455
304.8922317657
304.8740484486
304.9130262469
304.8740416333
313.0555599657
313.0893455763
313.055474284
313.0694916046
313.1033302196
313.0693971802
313.0558515355
313.0893851242
313.0558435924

SCALARS	sig_11	float	1
LOOKUP_TABLE	default
15.124960239
26.1903702321
16.0891068911
23.4652766346
33.2198623727
23.007373347
15.5260179241
24.8695038005
15.6006340626
-6.8186264058
-2.1239471939
-6.8872571312
-3.0471629536
1.7963174535
-3.0203607207
-7.089915627
-2.263476592
-7.1039867137
-19.4944049286
-19.0356634022
-19.4743583824
-19.2942300846
-18.8038288975
-19.3007762859
-19.4452484779
-19.0192221929
-19.43813022

SCALARS	sig_22	float	1
LOOKUP_TABLE	default
9.3964603558
19.6981183214
10.1554145363
18.4299074912
26.8306950887
18.4254230309
11.2065099668
18.0400221147
11.2604626493
-5.9112787165
-2.6895301471
-5.9673167628
-1.9966847401
1.4177780545
-1.9944614338
-6.0721914173
-2.5950165361
-6.074272796
-14.2584926971
-13.9005060867
-14.2446355371
-14.138195809
-13.7698943246
-14.1322798354
-14.1983253391
-13.9376142072
-14.1994486716

SCALARS	sig_33	float	1
LOOKUP_TABLE	default
25.1643228314
52.2904366352
25.6597777344
45.112155646
71.3521090573
44.9419398952
25.9217219111
51.5240315984
25.9253100609
-8.9981168329
4.7225995469
-9.0537604459
0.8734474961
14.7954633253
0.8760357135
-9.0888495153
4.7724673164
-9.1017702545
-55.3263541236
-53.1563242669
-55.3530710793
-54.8459851517
-52.5142402427
-54.8288850583
-55.3364210317
-53.1380498841
-55.3147204522

SCALARS vonMises	float	1
LOOKUP_TABLE	default
68.8805387485
51.7359064875
68.3822609672
56.0726011544
37.3974887194
56.3244808736
68.2618428735
52.9149110779
68.3272885873
49.4769825406
45.3015049912
49.389150889
47.1763557839
44.2202599357
47.2168391391
49.3646713742
45.4520438822
49.3734890772
55.0225141488
54.6849642639
55.12322647
55.015198557
54.6232795226
54.9777879917
55.1914419999
54.6152635061
55.1833069809
