# vtk DataFile Version 2.0
Results
ASCII
DATASET UNSTRUCTURED_GRID
POINTS         27           float
0.0	0.0	0.0	
50.0	0.0	0.0	
100.0	0.0	0.0	
0.0	40.0	0.0	
50.0	40.0	0.0	
100.0	40.0	0.0	
0.0	80.0	0.0	
50.0	80.0	0.0	
100.0	80.0	0.0	
0.0	0.0	70.0	
50.0	0.0	70.0	
100.0	0.0	70.0	
0.0	40.0	70.0	
50.0	40.0	70.0	
100.0	40.0	70.0	
0.0	80.0	70.0	
50.0	80.0	70.0	
100.0	80.0	70.0	
0.0	0.0	140.0	
50.0	0.0	140.0	
100.0	0.0	140.0	
0.0	40.0	140.0	
50.0	40.0	140.0	
100.0	40.0	140.0	
0.0	80.0	140.0	
50.0	80.0	140.0	
100.0	80.0	140.0	

CELLS	8	72
 8	0	1	4	3	9	10	13	12	
 8	1	2	5	4	10	11	14	13	
 8	4	5	8	7	13	14	17	16	
 8	3	4	7	6	12	13	16	15	
 8	9	10	13	12	18	19	22	21	
 8	10	11	14	13	19	20	23	22	
 8	13	14	17	16	22	23	26	25	
 8	12	13	16	15	21	22	25	24	

CELL_TYPES	8
 12
 12
 12
 12
 12
 12
 12
 12

POINT_DATA	27
VECTORS	u 	float 
0.0	0.0	0.0
0.0011922129	0.0	0.0
0.0026695135	0.0	0.0
0.0	-0.0007320911	0.0
0.0011889206	-0.0007507521	0.0
0.0021734331	-0.0006355653	0.0
0.0	-0.0008955377	0.0
0.0010983431	-0.0019794615	0.0
0.0022868732	-0.0007929987	0.0
-0.0236262959	-0.0212582396	0.0089989674
0.0012213297	-0.0204774061	0.0196785359
0.026001299	-0.0211199506	0.0090055743
-0.0236105882	-0.0007695257	0.0165523757
0.0011608533	-0.0007394716	0.0273012934
0.0259826949	-0.0006535327	0.0165415743
-0.0236698033	0.0195865344	0.0090387715
0.0011241532	0.0191258317	0.0197079533
0.0258940588	0.0197034531	0.0090266592
-0.0543974782	-0.0463388008	0.0653936952
0.0012135273	-0.0465083641	0.0764308273
0.0568564721	-0.04622996	0.0653793583
-0.0545780844	-0.000819565	0.0725057103
0.0011750353	-0.000742837	0.0837456136
0.0569047696	-0.0006995851	0.0725050388
-0.0545154339	0.0447619234	0.0654083456
0.0011241567	0.0449632399	0.0764756677
0.0567743397	0.0448791868	0.065402044

VECTORS	v 	float 
0.0	0.0	0.0
5.56741e-05	0.0	0.0
0.000107657	0.0	0.0
0.0	6.03773e-05	0.0
4.55028e-05	4.81e-05	0.0
9.4048e-05	5.96685e-05	0.0
0.0	0.000114337	0.0
5.77077e-05	0.0001012852	0.0
0.0001138358	0.0001131954	0.0
3.52442e-05	5.06445e-05	8.51488e-05
4.92714e-05	4.31782e-05	4.91596e-05
6.44132e-05	4.8662e-05	8.46076e-05
3.16512e-05	5.38787e-05	6.1276e-05
5.24951e-05	5.58191e-05	2.74664e-05
7.22383e-05	5.22e-05	6.19665e-05
3.58565e-05	5.87753e-05	8.42499e-05
5.05097e-05	6.68529e-05	4.79013e-05
6.56693e-05	5.73217e-05	8.39132e-05
0.0001329588	0.0001199382	1.72902e-05
5.10658e-05	0.0001111143	-2.62828e-05
-3.12592e-05	0.000118723	1.64614e-05
0.0001161041	5.65298e-05	-9.9698e-06
5.04764e-05	5.47636e-05	-5.03626e-05
-1.46369e-05	5.50889e-05	-8.97e-06
0.000134584	-7.3304e-06	1.5607e-05
5.20879e-05	-1.0286e-06	-2.66135e-05
-3.05091e-05	-8.9564e-06	1.48813e-05

VECTORS	a 	float 
0.0	0.0	0.0
0.8923397156	0.0	0.0
1.7799695111	0.0	0.0
0.0	0.7230812284	0.0
0.8809853628	0.7114379826	0.0
1.7659455913	0.7228246384	0.0
0.0	1.4391253301	0.0
0.8954359683	1.4282224063	0.0
1.7881611653	1.4386093731	0.0
-0.0106798752	0.0095493574	-3.0656529551
0.8852666302	-0.0040785047	-3.0866087486
1.782656756	0.0071060743	-3.066255133
-0.0194870802	0.7172710843	-3.0758068617
0.8890096704	0.71894459	-3.0937813483
1.7960423682	0.7151253725	-3.0752356268
-0.0097467306	1.4268777125	-3.066615408
0.886704414	1.4402561489	-3.0886673042
1.783967232	1.4250314614	-3.0670280225
-0.0059279234	-0.0027756641	-6.1574945375
0.887256158	-0.0189017188	-6.1966791521
1.7799569068	-0.0044800824	-6.1587035188
-0.0308392272	0.7202619203	-6.1791910867
0.886770841	0.7183155449	-6.2133474658
1.804993691	0.7182819653	-6.1779796445
-0.0036645568	1.4428593686	-6.1595533392
0.8888227863	1.4560876779	-6.1973951057
1.7811912097	1.4406096818	-6.1606514209

SCALARS	theta	float 1
LOOKUP_TABLE	default
299.8770473458
299.9215929281
299.879788438
299.8985139305
299.9387479366
299.8983770581
299.8802826228
299.9174647539
299.8801598517
305.1815163076
305.2015156113
305.1812514981
305.1905186006
305.2113548154
305.1906561985
305.1806002759
305.2017553678
305.1805949369
310.9674220446
310.9711933691
310.9673552314
310.9668160615
310.9706290531
310.9667527487
310.9676147457
310.9712043279
310.9676506229

SCALARS	sig_11	float	1
LOOKUP_TABLE	default
13.3610612786
21.6911730184
14.0950758351
19.6682007416
27.0049377919
19.3160702965
13.6661168161
20.6964279792
13.7276759459
-6.739881571
-3.2997613125
-6.7929730071
-4.0357906774
-0.4814364776
-4.0153418867
-6.945120285
-3.4045018691
-6.9560753594
-13.0000676347
-12.8311017336
-12.9845930774
-13.1301888236
-12.9380978471
-13.1354087329
-12.9628448109
-12.818983278
-12.957461168

SCALARS	sig_22	float	1
LOOKUP_TABLE	default
8.6840189035
16.4387214616
9.2567313139
15.5094014601
21.827349564
15.5025086182
10.055159663
15.1868231953
10.0952464062
-5.7279301021
-3.3791207728
-5.7715309782
-2.9396091047
-0.4436944179
-2.9382523386
-5.8492613744
-3.3064086181
-5.8512430319
-9.3373580007
-9.2028798932
-9.3264743599
-9.579255206
-9.4379491462
-9.5747118466
-9.2914619241
-9.2309599456
-9.2922009401

SCALARS	sig_33	float	1
LOOKUP_TABLE	default
21.7038663327
42.1752666212
22.0776449946
36.8256170895
56.6345811824
36.6952816684
22.2764125759
41.5995316883
22.2817218833
-9.1485485461
0.6754630979
-9.1918710933
-2.2255943055
7.7545617983
-2.2235982123
-9.2172787869
0.7144155618
-9.2268625166
-37.6841296604
-37.1032908028
-37.7043558725
-38.4377292229
-37.7352898779
-38.4248094024
-37.6921072397
-37.0895587993
-37.6754651023

SCALARS vonMises	float	1
LOOKUP_TABLE	default
55.8284170967
41.9058473524
55.44523568
45.1284517454
29.4604937105
45.3238232386
55.3467576102
42.7981162301
55.3940709099
37.1486746712
33.9025721863
37.0730961648
35.3758599584
32.8921916862
35.4124438309
37.0521694058
34.0462732574
37.0587118362
38.8537003265
39.0433515982
38.9305426273
39.1476346407
39.2896707298
39.1185375925
38.9816435546
38.9915490694
38.9758772642
