# vtk DataFile Version 2.0
Results
ASCII
DATASET UNSTRUCTURED_GRID
POINTS         27           float
0.0	0.0	0.0	
50.0	0.0	0.0	
100.0	0.0	0.0	
0.0	40.0	0.0	
50.0	40.0	0.0	
100.0	40.0	0.0	
0.0	80.0	0.0	
50.0	80.0	0.0	
100.0	80.0	0.0	
0.0	0.0	70.0	
50.0	0.0	70.0	
100.0	0.0	70.0	
0.0	40.0	70.0	
50.0	40.0	70.0	
100.0	40.0	70.0	
0.0	80.0	70.0	
50.0	80.0	70.0	
100.0	80.0	70.0	
0.0	0.0	140.0	
50.0	0.0	140.0	
100.0	0.0	140.0	
0.0	40.0	140.0	
50.0	40.0	140.0	
100.0	40.0	140.0	
0.0	80.0	140.0	
50.0	80.0	140.0	
100.0	80.0	140.0	

CELLS	8	72
 8	0	1	4	3	9	10	13	12	
 8	1	2	5	4	10	11	14	13	
 8	4	5	8	7	13	14	17	16	
 8	3	4	7	6	12	13	16	15	
 8	9	10	13	12	18	19	22	21	
 8	10	11	14	13	19	20	23	22	
 8	13	14	17	16	22	23	26	25	
 8	12	13	16	15	21	22	25	24	

CELL_TYPES	8
 12
 12
 12
 12
 12
 12
 12
 12

POINT_DATA	27
VECTORS	u 	float 
0.0	0.0	0.0
-0.0147420451	0.0	0.0
-0.0290554756	0.0	0.0
0.0	-0.0118337068	0.0
-0.0147758949	-0.0118653804	0.0
-0.029850569	-0.0116268852	0.0
0.0	-0.0225486458	0.0
-0.0149448951	-0.0246637101	0.0
-0.0298164121	-0.0222928518	0.0
-0.0232569415	-0.0169397398	-0.0209698638
-0.0146969606	-0.0149408428	0.0005263769
-0.0062441251	-0.016647889	-0.0209678525
-0.0231791559	-0.0119147699	-0.0065738617
-0.014816919	-0.0118446612	0.0149298804
-0.0063831267	-0.0116684782	-0.0066057409
-0.0233647862	-0.0071485357	-0.020881721
-0.0149029533	-0.0084947779	0.0005983518
-0.0064642183	-0.0069026692	-0.0209115992
-0.1184080897	-0.1003980356	0.0417071096
-0.0147014278	-0.0999540595	0.0790539673
0.0890580254	-0.100165445	0.0416699451
-0.1183644224	-0.0120241004	0.0689350196
-0.0147877075	-0.0118637407	0.1065660967
0.0887553976	-0.0117698857	0.0689237698
-0.118654474	0.0764719773	0.0417531258
-0.0148918316	0.0761080788	0.0791564479
0.0888813773	0.0767199271	0.0417303286

VECTORS	v 	float 
0.0	0.0	0.0
-4.22948e-05	0.0	0.0
-8.35223e-05	0.0	0.0
0.0	-7.32811e-05	0.0
-3.70204e-05	-6.46794e-05	0.0
-7.50164e-05	-7.33982e-05	0.0
0.0	-0.0001469167	0.0
-4.22001e-05	-0.0001290606	0.0
-8.36181e-05	-0.000147106	0.0
-0.0002474152	-0.0002709621	0.0001261984
-3.90811e-05	-0.00027985	8.54801e-05
0.0001690209	-0.0002709709	0.0001266681
-0.0002445346	-6.81577e-05	0.0001084121
-4.02618e-05	-6.98329e-05	6.57808e-05
0.0001644063	-6.82223e-05	0.0001080038
-0.0002472652	0.0001346429	0.0001263019
-3.90236e-05	0.0001401585	8.55487e-05
0.000169039	0.0001344659	0.0001266876
0.0003326762	0.0002807374	0.0002255031
-3.99493e-05	0.0002770976	5.3612e-06
-0.0004124661	0.0002805619	0.0002259307
0.0003443435	-6.92391e-05	3.90323e-05
-3.93426e-05	-6.87499e-05	-0.0001842403
-0.0004232682	-6.93806e-05	3.86869e-05
0.0003327129	-0.0004193451	0.0002259494
-3.98017e-05	-0.0004144992	5.0433e-06
-0.0004122311	-0.0004194104	0.0002263178

VECTORS	a 	float 
0.0	0.0	0.0
-0.8967672408	0.0	0.0
-1.7928404882	0.0	0.0
0.0	-0.7176025022	0.0
-0.8936086519	-0.7143193165	0.0
-1.7877970045	-0.7176046466	0.0
0.0	-1.4338784574	0.0
-0.8975680676	-1.4295776759	0.0
-1.7946975043	-1.433879668	0.0
-0.0030078079	-0.0027351211	3.0795955367
-0.8948444992	0.0002463832	3.0827680999
-1.7869256759	-0.0022194096	3.079775623
-0.0012363803	-0.7159149789	3.0803216808
-0.895810162	-0.7163998862	3.0824769819
-1.790134639	-0.7154425927	3.0801821186
-0.0032588315	-1.4294548509	3.0798051079
-0.8951317113	-1.4327523879	3.0832206909
-1.787166374	-1.4290272965	3.0799464444
0.0039699915	0.0026552272	6.1564613184
-0.895387301	0.0080336707	6.168877421
-1.794700245	0.0030255049	6.1568188065
0.0105897259	-0.7166355984	6.164119589
-0.8952281478	-0.7161860038	6.1748300483
-1.8011144382	-0.716220374	6.1637907896
0.0035243224	-1.4358612153	6.1569189545
-0.8957246623	-1.4404759966	6.1690166228
-1.7949781448	-1.4353993262	6.1572462331

SCALARS	theta	float 1
LOOKUP_TABLE	default
297.4671518144
297.4602378027
297.4655577001
297.4495896117
297.4383010843
297.4523852483
297.4724896207
297.4558658188
297.4709091309
301.2230751097
301.3616807501
301.2225346654
301.3222528229
301.4609951641
301.3214214557
301.2225226097
301.3632064467
301.2227658681
320.6871294907
321.0090255936
320.6874717786
320.9160363204
321.2384588022
320.9163812365
320.6875838456
321.0086895422
320.6873554223

SCALARS	sig_11	float	1
LOOKUP_TABLE	default
-11.6373127517
6.0093674285
-10.3390597774
0.8537958333
16.6631814974
0.3460004666
-11.0877643355
3.9794400856
-11.1100924817
17.307248667
27.5949425399
17.2248537169
25.9522392019
36.4317817982
25.9834134865
16.8986388858
27.3787894797
16.8883987507
-61.9158084729
-56.1747456403
-61.8974924549
-56.2371070609
-50.4416618872
-56.2443326573
-61.8399939031
-56.1447049693
-61.8358579337

SCALARS	sig_22	float	1
LOOKUP_TABLE	default
-14.0484446236
2.3581254019
-12.8638932541
-0.5029863493
13.0684655952
-0.3771289424
-11.3654417348
-0.1462954154
-11.2315862805
13.143895779
20.3358791783
13.0838551491
22.180066987
29.6382516248
22.1919824617
12.9000149123
20.4704614188
12.9119196451
-48.0177560265
-43.8892940957
-48.0094855048
-41.887188876
-37.7369157301
-41.8828899643
-47.92792428
-43.9413402928
-47.9373725291

SCALARS	sig_33	float	1
LOOKUP_TABLE	default
-10.4425220491
31.7173458907
-9.7041384209
18.8819696226
59.6368035814
18.6885920273
-9.3184789582
30.5386136098
-9.3471585341
27.6281259095
59.322116826
27.5586670221
52.2817494682
84.2116569183
52.2808541718
27.4943283539
59.3902260224
27.4739584693
-158.287719293
-134.5121321332
-158.3354120625
-137.5873429724
-113.5710916576
-137.5635991482
-158.2947505931
-134.4802553968
-158.2714652049

SCALARS vonMises	float	1
LOOKUP_TABLE	default
39.4697546241
32.3811730866
38.9601910284
38.2865634573
38.5439177955
38.5767461509
39.2686017753
34.3086414181
39.4463843713
96.8510732565
92.0313742588
97.1565578999
90.9736374653
83.3499041969
90.928274989
97.3295125234
91.645252663
97.3231613867
132.5160084942
123.890777271
132.6500110107
127.3234234087
119.1449912656
127.2869746881
132.7608135803
123.7787806668
132.7383143016
