# vtk DataFile Version 2.0
Results
ASCII
DATASET UNSTRUCTURED_GRID
POINTS         27           float
0.0	0.0	0.0	
50.0	0.0	0.0	
100.0	0.0	0.0	
0.0	40.0	0.0	
50.0	40.0	0.0	
100.0	40.0	0.0	
0.0	80.0	0.0	
50.0	80.0	0.0	
100.0	80.0	0.0	
0.0	0.0	70.0	
50.0	0.0	70.0	
100.0	0.0	70.0	
0.0	40.0	70.0	
50.0	40.0	70.0	
100.0	40.0	70.0	
0.0	80.0	70.0	
50.0	80.0	70.0	
100.0	80.0	70.0	
0.0	0.0	140.0	
50.0	0.0	140.0	
100.0	0.0	140.0	
0.0	40.0	140.0	
50.0	40.0	140.0	
100.0	40.0	140.0	
0.0	80.0	140.0	
50.0	80.0	140.0	
100.0	80.0	140.0	

CELLS	8	72
 8	0	1	4	3	9	10	13	12	
 8	1	2	5	4	10	11	14	13	
 8	4	5	8	7	13	14	17	16	
 8	3	4	7	6	12	13	16	15	
 8	9	10	13	12	18	19	22	21	
 8	10	11	14	13	19	20	23	22	
 8	13	14	17	16	22	23	26	25	
 8	12	13	16	15	21	22	25	24	

CELL_TYPES	8
 12
 12
 12
 12
 12
 12
 12
 12

POINT_DATA	27
VECTORS	u 	float 
0.0	0.0	0.0
-0.012937613	0.0	0.0
-0.0254945136	0.0	0.0
0.0	-0.0091015918	0.0
-0.0129871011	-0.0091290316	0.0
-0.0262339041	-0.0088721681	0.0
0.0	-0.0170179434	0.0
-0.0131617776	-0.0192441765	0.0
-0.0263066263	-0.0167183239	0.0
-0.0150673009	-0.0079611996	-0.0242600851
-0.0128959557	-0.0054873907	-0.0016602093
-0.0108224221	-0.0076418161	-0.0242638035
-0.0150473284	-0.0091879618	-0.0094566456
-0.0130236059	-0.0091087368	0.0130708286
-0.010939064	-0.0089168093	-0.0094968643
-0.0151921205	-0.0106887107	-0.0241636586
-0.0131223806	-0.0124604216	-0.0015798693
-0.011062855	-0.0104186366	-0.0241992397
-0.1273799501	-0.1080935056	0.0348339089
-0.0128943277	-0.1069702439	0.079555523
0.1016410104	-0.1078365221	0.0347898546
-0.127295394	-0.0093073552	0.0682735328
-0.0129916431	-0.0091320685	0.1132235512
0.1012835402	-0.0090278774	0.0682562251
-0.1276483465	0.0896083002	0.0348874061
-0.0131042186	0.088579559	0.0796678196
0.1014450974	0.0898806623	0.0348578634

VECTORS	v 	float 
0.0	0.0	0.0
-0.0001074585	0.0	0.0
-0.000212298	0.0	0.0
0.0	-0.0001460975	0.0
-0.000102432	-0.0001391527	0.0
-0.0002070015	-0.0001467534	0.0
0.0	-0.0002932879	0.0
-0.0001072248	-0.0002773934	0.0
-0.0002120211	-0.0002946206	0.0
-0.0003948269	-0.0004245939	0.0001246597
-0.0001045367	-0.0004444179	8.45041e-05
0.0001851534	-0.0004250451	0.0001252208
-0.0003899214	-0.0001418738	0.0001125306
-0.0001055172	-0.000143424	7.32805e-05
0.0001795898	-0.0001423357	0.0001124751
-0.0003943974	0.0001410416	0.0001246543
-0.0001041112	0.0001573085	8.45054e-05
0.0001855788	0.0001405061	0.0001251183
0.0003627218	0.0003130829	0.0003018585
-0.0001055218	0.0002882514	1.7598e-06
-0.0005735526	0.0003124779	0.0003024851
0.0003725931	-0.0001426379	4.28467e-05
-0.0001047728	-0.0001424987	-0.0002580568
-0.0005824769	-0.0001432089	4.26744e-05
0.0003631309	-0.0005985984	0.0003021764
-0.0001050504	-0.0005730116	1.3691e-06
-0.0005730094	-0.0005990759	0.000302752

VECTORS	a 	float 
0.0	0.0	0.0
-0.8960984048	0.0	0.0
-1.7914454193	0.0	0.0
0.0	-0.7172452941	0.0
-0.8935983696	-0.7152234628	0.0
-1.7878119605	-0.717358901	0.0
0.0	-1.4334216817	0.0
-0.8968691261	-1.4311657608	0.0
-1.7931322125	-1.4336360877	0.0
-0.0024138283	-0.0030578237	3.0796674086
-0.894613738	-0.000741871	3.0825661622
-1.787069819	-0.0026589869	3.0798089141
-0.0008177042	-0.7162845151	3.0803147877
-0.8953901194	-0.7165691991	3.0827899628
-1.7897177904	-0.7159034465	3.0802817062
-0.0026205597	-1.4298040193	3.0798342958
-0.8948156551	-1.432176408	3.0829898306
-1.7872151176	-1.4294462135	3.0799480065
0.0041123578	0.0030202166	6.1577632554
-0.8950694295	0.0062459578	6.1661741347
-1.794216123	0.0033102797	6.1581149754
0.0087051502	-0.7168147116	6.1627404307
-0.8949471618	-0.716499597	6.1700481248
-1.7986491617	-0.7164899462	6.1624763828
0.0037601379	-1.4366018018	6.1581439306
-0.8953444013	-1.4392875104	6.1663183361
-1.7944455637	-1.436237137	6.158469571

SCALARS	theta	float 1
LOOKUP_TABLE	default
298.2892037897
298.2424962105
298.2845125831
298.251341625
298.1996191407
298.255126643
298.2955982555
298.2380509742
298.2927398435
299.6059127556
299.7318453178
299.6055668476
299.7292885387
299.8548510251
299.7280805184
299.6051429011
299.7340394498
299.6056949825
323.0238304774
323.3718261042
323.0243070336
323.3289744146
323.6777225199
323.3295913261
323.0245786575
323.3709981124
323.0241478307

SCALARS	sig_11	float	1
LOOKUP_TABLE	default
-27.2479385215
-8.0157661457
-25.9652857811
-14.1533723148
3.228027762
-14.5775810533
-26.7064383607
-10.1817310399
-26.8087979466
29.245575079
42.4197005445
29.1674993909
40.0128865935
53.370206856
40.0391458876
28.8149899843
42.1862686049
28.8094516242
-79.9718044444
-70.0671319157
-79.9579401356
-70.9776063484
-61.0127648075
-70.9836670569
-79.8928576853
-70.0312800492
-79.8915369648

SCALARS	sig_22	float	1
LOOKUP_TABLE	default
-27.0244738695
-9.217896741
-25.7470781442
-12.8251966047
2.0034844232
-12.60270486
-24.205797986
-11.8724684797
-24.0318989649
22.7198418463
31.8853164607
22.667568686
33.8797820555
43.3127025457
33.8963921162
22.4633034085
32.0247852341
22.4835639238
-62.4349053223
-55.4585361699
-62.4319362821
-52.8603416928
-45.8604425047
-52.8584028384
-62.3411496988
-55.5105521874
-62.3546920683

SCALARS	sig_33	float	1
LOOKUP_TABLE	default
-32.0181195168
13.0262361387
-31.246610973
-1.6257346862
41.9050014225
-1.783719325
-30.846426665
11.7737760303
-30.8933859258
45.9682271444
84.7194729038
45.8981221662
76.250555689
115.2088219104
76.2444825873
45.8313807299
84.788606823
45.8075459814
-198.4492294214
-163.3784406409
-198.5025882467
-167.713257425
-132.3935842084
-167.6882942606
-198.4558759187
-163.3407241662
-198.4345541363

SCALARS vonMises	float	1
LOOKUP_TABLE	default
19.2475477879
24.1348491795
19.2455320986
24.321607713
36.2191146222
24.5993248091
20.9705743557
25.6990087779
21.2712686101
125.0893236959
114.3681404173
125.4940021731
111.6277463722
97.1419306072
111.5720393992
125.7829800647
113.7969899801
125.756086378
160.1374997649
147.1255804108
160.2694863268
152.3774231506
140.1734227727
152.3480859963
160.3937894975
147.0045876379
160.3633783672
