# vtk DataFile Version 2.0
Results
ASCII
DATASET UNSTRUCTURED_GRID
POINTS         27           float
0.0	0.0	0.0	
50.0	0.0	0.0	
100.0	0.0	0.0	
0.0	40.0	0.0	
50.0	40.0	0.0	
100.0	40.0	0.0	
0.0	80.0	0.0	
50.0	80.0	0.0	
100.0	80.0	0.0	
0.0	0.0	70.0	
50.0	0.0	70.0	
100.0	0.0	70.0	
0.0	40.0	70.0	
50.0	40.0	70.0	
100.0	40.0	70.0	
0.0	80.0	70.0	
50.0	80.0	70.0	
100.0	80.0	70.0	
0.0	0.0	140.0	
50.0	0.0	140.0	
100.0	0.0	140.0	
0.0	40.0	140.0	
50.0	40.0	140.0	
100.0	40.0	140.0	
0.0	80.0	140.0	
50.0	80.0	140.0	
100.0	80.0	140.0	

CELLS	8	72
 8	0	1	4	3	9	10	13	12	
 8	1	2	5	4	10	11	14	13	
 8	4	5	8	7	13	14	17	16	
 8	3	4	7	6	12	13	16	15	
 8	9	10	13	12	18	19	22	21	
 8	10	11	14	13	19	20	23	22	
 8	13	14	17	16	22	23	26	25	
 8	12	13	16	15	21	22	25	24	

CELL_TYPES	8
 12
 12
 12
 12
 12
 12
 12
 12

POINT_DATA	27
VECTORS	u 	float 
0.0	0.0	0.0
-0.0145885633	0.0	0.0
-0.0287255874	0.0	0.0
0.0	-0.013081668	0.0
-0.0146081891	-0.0131181879	0.0
-0.0295370302	-0.0129047524	0.0
0.0	-0.0251553406	0.0
-0.014762861	-0.0270790794	0.0
-0.0294058971	-0.0249515091	0.0
-0.0308404843	-0.0257576754	-0.0145491564
-0.0145435999	-0.0242181204	0.0047444076
0.0016433481	-0.0255045533	-0.0145422867
-0.0307501663	-0.0131552003	-0.0012853722
-0.014650598	-0.0130964476	0.0180798644
0.0015270132	-0.0129426208	-0.0013084827
-0.0309275649	-0.0007865875	-0.0144730255
-0.0147215959	-0.0017469811	0.0048048827
0.001451185	-0.0005734758	-0.0144967742
-0.1027948421	-0.0872380799	0.0508182728
-0.0145526826	-0.0872948171	0.0782547401
0.0737421225	-0.0870378982	0.0507888983
-0.102867755	-0.013249841	0.0700026155
-0.0146253243	-0.013110296	0.0977534295
0.0735805709	-0.0130301218	0.0699973111
-0.103009965	0.0608488419	0.0508543255
-0.0147167898	0.0609680836	0.0783429643
0.0735909725	0.0610631584	0.0508385338

VECTORS	v 	float 
0.0	0.0	0.0
2.42042e-05	0.0	0.0
4.38107e-05	0.0	0.0
0.0	1.48548e-05	0.0
1.97121e-05	1.36203e-05	0.0
4.31489e-05	1.48954e-05	0.0
0.0	2.34531e-05	0.0
2.69881e-05	3.19931e-05	0.0
5.08831e-05	2.36678e-05	0.0
-9.3317e-05	-8.44026e-05	0.0001377393
2.14492e-05	-9.78483e-05	7.88706e-05
0.0001376007	-8.62823e-05	0.0001375617
-0.0001013781	1.50536e-05	0.0001039085
2.34464e-05	1.49479e-05	4.4501e-05
0.000147058	1.33492e-05	0.0001037456
-9.25645e-05	0.0001161136	0.0001369285
2.25328e-05	0.0001263027	7.72464e-05
0.000138528	0.0001145305	0.0001369202
0.0002752425	0.0002323614	0.0001200169
2.24531e-05	0.0002279649	-3.34201e-05
-0.0002307562	0.0002310009	0.0001192098
0.0002639535	1.65361e-05	2.2708e-06
2.25102e-05	1.54557e-05	-0.0001507765
-0.0002185235	1.49686e-05	2.8477e-06
0.0002769753	-0.0001997823	0.0001186155
2.3713e-05	-0.0001965263	-3.42767e-05
-0.0002296891	-0.0002015153	0.0001178913

VECTORS	a 	float 
0.0	0.0	0.0
0.8965868929	0.0	0.0
1.7920968229	0.0	0.0
0.0	0.7184857504	0.0
0.8921097203	0.7134543083	0.0
1.7851322572	0.7183958434	0.0
0.0	1.4348917481	0.0
0.8976565409	1.4284396436	0.0
1.7947343625	1.4347142286	0.0
0.0017382631	0.0033189052	-3.0781854268
0.8938249024	-0.0011349584	-3.0831617993
1.7862756142	0.0025290175	-3.0784383111
-0.0009105955	0.7158653531	-3.0798226574
0.895212185	0.7166168365	-3.0831725496
1.7909543919	0.7151603968	-3.0795715896
0.0020891539	1.4289729159	-3.078508083
0.8942843447	1.4338820312	-3.0837975088
1.7866856728	1.4283525051	-3.0786969539
-0.0044253697	-0.0026209621	-6.1564850192
0.8945852386	-0.0104702644	-6.1737275231
1.7935011455	-0.0031759286	-6.1569436907
-0.0143162605	0.7169546825	-6.1670064461
0.8943617644	0.7162589003	-6.181762922
1.8031755132	0.7163242011	-6.1665407836
-0.0037376245	1.4364166567	-6.1571687349
0.895085306	1.4431239241	-6.1739183742
1.7939050575	1.4357119198	-6.1575833486

SCALARS	theta	float 1
LOOKUP_TABLE	default
296.986733214
297.0202327479
296.9882966086
296.9942570645
297.0229295498
296.9954915485
296.9913100763
297.0156862079
296.9909785422
303.1837918844
303.2886339979
303.1832353638
303.2404092038
303.3459488004
303.240093884
303.1830733289
303.2896174278
303.1831068179
317.4678406174
317.6655688665
317.467920863
317.5794652336
317.7773878973
317.5795209518
317.4682458195
317.6655024595
317.4681340474

SCALARS	sig_11	float	1
LOOKUP_TABLE	default
5.373012456
20.7561470293
6.6212318341
16.682839283
30.3319434927
16.1319697001
5.9044085262
18.9432850842
5.9503102574
3.1397955458
10.6311581447
3.0558444547
9.4954994014
17.1750441795
9.5285290769
2.7718163282
10.4393208758
2.7573698736
-40.5978850757
-38.2452993836
-40.5755412375
-38.0723406992
-35.6729308191
-38.0799236851
-40.5300237363
-38.2208198578
-40.5230898687

SCALARS	sig_22	float	1
LOOKUP_TABLE	default
0.3173025242
14.6540734053
1.3625104636
12.5787938448
24.3439434454
12.6224225067
2.7561347989
12.3998584241
2.8463855576
1.8478584595
7.0780349187
1.78200079
8.5193076531
14.0004129784
8.5256802375
1.6283288596
7.2018660336
1.6314666416
-30.9652483278
-29.2024535406
-30.9517425374
-28.2256273913
-26.4445132102
-28.2191208052
-30.8840496704
-29.2513964396
-30.8889048996

SCALARS	sig_33	float	1
LOOKUP_TABLE	default
12.867081802
50.2030922267
13.5382957213
39.6763131164
75.7710057008
39.4685271593
13.8955045631
49.1460730365
13.8825409779
6.1667133619
29.4376761632
6.0982340762
23.8936939826
47.4100327928
23.8957835422
6.0441947037
29.5011570441
6.0265692588
-108.239879553
-96.6054942896
-108.2791830011
-98.7754804358
-86.9209617567
-98.7527547376
-108.249006943
-96.57939627
-108.224110209

SCALARS vonMises	float	1
LOOKUP_TABLE	default
64.224550721
48.906167053
63.6215539234
55.0121066249
42.0999975275
55.3125818216
63.5657366407
50.533624863
63.6769087436
72.0737132246
68.5653047102
72.0915207324
69.6709870014
66.2742916176
69.6724288477
72.1061391465
68.4797752832
72.1171821032
96.6186265058
92.7586903395
96.7478172079
94.3444104782
90.5828602614
94.3021185401
96.8429800631
92.6608118201
96.8281589984
