# vtk DataFile Version 2.0
Results
ASCII
DATASET UNSTRUCTURED_GRID
POINTS         27           float
0.0	0.0	0.0	
50.0	0.0	0.0	
100.0	0.0	0.0	
0.0	40.0	0.0	
50.0	40.0	0.0	
100.0	40.0	0.0	
0.0	80.0	0.0	
50.0	80.0	0.0	
100.0	80.0	0.0	
0.0	0.0	70.0	
50.0	0.0	70.0	
100.0	0.0	70.0	
0.0	40.0	70.0	
50.0	40.0	70.0	
100.0	40.0	70.0	
0.0	80.0	70.0	
50.0	80.0	70.0	
100.0	80.0	70.0	
0.0	0.0	140.0	
50.0	0.0	140.0	
100.0	0.0	140.0	
0.0	40.0	140.0	
50.0	40.0	140.0	
100.0	40.0	140.0	
0.0	80.0	140.0	
50.0	80.0	140.0	
100.0	80.0	140.0	

CELLS	8	72
 8	0	1	4	3	9	10	13	12	
 8	1	2	5	4	10	11	14	13	
 8	4	5	8	7	13	14	17	16	
 8	3	4	7	6	12	13	16	15	
 8	9	10	13	12	18	19	22	21	
 8	10	11	14	13	19	20	23	22	
 8	13	14	17	16	22	23	26	25	
 8	12	13	16	15	21	22	25	24	

CELL_TYPES	8
 12
 12
 12
 12
 12
 12
 12
 12

POINT_DATA	27
VECTORS	u 	float 
0.0	0.0	0.0
-0.00693551	0.0	0.0
-0.0134945323	0.0	0.0
0.0	-0.0075677927	0.0
-0.0069424468	-0.0075948467	0.0
-0.0141547766	-0.0074378513	0.0
0.0	-0.0143712455	0.0
-0.0070625547	-0.0158309314	0.0
-0.0140081204	-0.0142309603	0.0
-0.0300109881	-0.0266914651	-0.0009741758
-0.0068977582	-0.0256250317	0.0134218051
0.0161256321	-0.0265048934	-0.0009660785
-0.0299742012	-0.0076201933	0.0091500265
-0.0069787261	-0.0075789342	0.0236318376
0.0160831409	-0.0074637995	0.0091350431
-0.0300708977	0.0112730931	-0.000919382
-0.0070288119	0.01063889	0.0134634318
0.0159820436	0.0114305494	-0.0009359168
-0.0740101	-0.0629871081	0.0610399455
-0.0069074744	-0.0631884812	0.0770862711
0.0602375782	-0.0628402137	0.06101998
-0.0742071702	-0.0076888704	0.0716070468
-0.0069596893	-0.0075854945	0.0879196693
0.060256832	-0.0075271268	0.0716055248
-0.074169342	0.0476931565	0.0610620804
-0.0070279981	0.0479374936	0.0771488815
0.0601270062	0.0478510463	0.0610528427

VECTORS	v 	float 
0.0	0.0	0.0
7.93781e-05	0.0	0.0
0.0001615698	0.0	0.0
0.0	5.62572e-05	0.0
8.60892e-05	6.23455e-05	0.0
0.0001697153	5.59503e-05	0.0
0.0	0.0001153205	0.0
7.76035e-05	0.0001227057	0.0
0.000157289	0.0001149965	0.0
6.08156e-05	3.11436e-05	8.61561e-05
8.34681e-05	3.76894e-05	6.5125e-05
0.0001052252	3.22765e-05	8.65178e-05
6.78106e-05	5.92441e-05	6.96716e-05
8.13803e-05	5.83511e-05	4.72179e-05
9.58924e-05	6.02747e-05	6.94777e-05
6.03759e-05	8.65216e-05	8.6647e-05
8.28594e-05	7.97224e-05	6.64065e-05
0.0001047344	8.73647e-05	8.69272e-05
0.0002025307	0.0001693203	5.36285e-05
8.23115e-05	0.0001781618	1.65389e-05
-3.76336e-05	0.0001702013	5.45235e-05
0.0002184341	5.75987e-05	2.34548e-05
8.26293e-05	5.85461e-05	-1.69344e-05
-5.35581e-05	5.86321e-05	2.27226e-05
0.0002012858	-5.40281e-05	5.49044e-05
8.14368e-05	-6.12462e-05	1.68776e-05
-3.83171e-05	-5.27917e-05	5.56863e-05

VECTORS	a 	float 
0.0	0.0	0.0
-0.8941958368	0.0	0.0
-1.7855699324	0.0	0.0
0.0	-0.7209432828	0.0
-0.8862851441	-0.7125893162	0.0
-1.774954818	-0.720786559	0.0
0.0	-1.4374338448	0.0
-0.8962659671	-1.4285269094	0.0
-1.7909085999	-1.4371216107	0.0
0.0044618678	-0.0067102967	3.0719924639
-0.8892860541	0.0020800909	3.0843779043
-1.7839219518	-0.0051222201	3.0724267228
0.010249573	-0.7167089896	3.0775892513
-0.8918385251	-0.7179262877	3.087647389
-1.7930230091	-0.7153037193	3.0771840212
0.00382323	-1.4279022085	3.0726349497
-0.8902174227	-1.4368633009	3.0856933501
-1.7847655375	-1.4266808806	3.0729400826
0.0062692528	0.0030754572	6.1581022232
-0.8906590799	0.0149785381	6.1850923301
-1.7873100179	0.0041939686	6.1589470239
0.0237936533	-0.718734038	6.1736659922
-0.890303979	-0.7174237058	6.1968259833
-1.8047614931	-0.7174447116	6.1728281505
0.004819242	-1.4402757894	6.1594619839
-0.8916832227	-1.4501567576	6.1855294331
-1.7881269564	-1.4388196508	6.160224796

SCALARS	theta	float 1
LOOKUP_TABLE	default
298.2123813387
298.2644995354
298.2154990409
298.2358838017
298.2828459856
298.2359018019
298.2164436701
298.2596889314
298.2163865149
304.8371235054
304.8766054812
304.8367416625
304.8551413281
304.8956113407
304.8552391298
304.8361352315
304.877069263
304.8361280554
313.225289768
313.2629775065
313.2252050838
313.2411971979
313.2789381444
313.2411018796
313.2255893968
313.2630171127
313.2255773514

SCALARS	sig_11	float	1
LOOKUP_TABLE	default
15.1028493528
26.3726128869
16.0833581797
23.5926555834
33.5286198497
23.1276200816
15.5109410452
25.027547924
15.5859878072
-6.6988890457
-1.902652823
-6.7685732251
-2.8369319746
2.1105289748
-2.8096909117
-6.9750218449
-2.0447561787
-6.9892809619
-20.1121260172
-19.6178012621
-20.0917896945
-19.8655733788
-19.3389147202
-19.8722049002
-20.0620812845
-19.6010201328
-20.0548589525

SCALARS	sig_22	float	1
LOOKUP_TABLE	default
9.3240471567
19.8161575959
10.096830022
18.5200521717
27.0772705029
18.5161673549
11.1661728151
18.1281764314
11.2212758666
-5.8249763262
-2.5315086381
-5.8818320211
-1.8140681233
1.6753753484
-1.8117453614
-5.988805706
-2.4354433976
-5.9908425512
-14.736082338
-14.3505843461
-14.7220559962
-14.5635006143
-14.167378167
-14.5574993621
-14.6748721698
-14.3883383756
-14.6760533729

SCALARS	sig_33	float	1
LOOKUP_TABLE	default
25.2033478392
52.8232019515
25.7077655424
45.5034564502
72.220296493
45.3305056049
25.9744101535
52.0425563632
25.9776707661
-8.8016314789
5.2504054253
-8.8581118941
1.3299821174
15.5864020296
1.3326086627
-8.8939775835
5.3010340023
-8.9071484285
-56.9528650464
-54.5814308177
-56.9800819964
-56.2935464996
-53.7574398228
-56.2761464321
-56.9630300308
-54.5628125247
-56.9410023767

SCALARS vonMises	float	1
LOOKUP_TABLE	default
69.5383257126
52.2360500216
69.032250736
56.6576525747
37.887592757
56.9136742551
68.9110360221
53.4367450311
68.9780604704
50.4089592067
46.1829773622
50.3211053315
48.077270616
45.1057771562
48.1175898061
50.2966437806
46.3314848511
50.3055691628
56.4256579802
56.0184167554
56.5280416958
56.3750115682
55.9138824447
56.3369698618
56.5976277283
55.9473044425
56.5891894947
