# vtk DataFile Version 2.0
Results
ASCII
DATASET UNSTRUCTURED_GRID
POINTS         27           float
0.0	0.0	0.0	
50.0	0.0	0.0	
100.0	0.0	0.0	
0.0	40.0	0.0	
50.0	40.0	0.0	
100.0	40.0	0.0	
0.0	80.0	0.0	
50.0	80.0	0.0	
100.0	80.0	0.0	
0.0	0.0	70.0	
50.0	0.0	70.0	
100.0	0.0	70.0	
0.0	40.0	70.0	
50.0	40.0	70.0	
100.0	40.0	70.0	
0.0	80.0	70.0	
50.0	80.0	70.0	
100.0	80.0	70.0	
0.0	0.0	140.0	
50.0	0.0	140.0	
100.0	0.0	140.0	
0.0	40.0	140.0	
50.0	40.0	140.0	
100.0	40.0	140.0	
0.0	80.0	140.0	
50.0	80.0	140.0	
100.0	80.0	140.0	

CELLS	8	72
 8	0	1	4	3	9	10	13	12	
 8	1	2	5	4	10	11	14	13	
 8	4	5	8	7	13	14	17	16	
 8	3	4	7	6	12	13	16	15	
 8	9	10	13	12	18	19	22	21	
 8	10	11	14	13	19	20	23	22	
 8	13	14	17	16	22	23	26	25	
 8	12	13	16	15	21	22	25	24	

CELL_TYPES	8
 12
 12
 12
 12
 12
 12
 12
 12

POINT_DATA	27
VECTORS	u 	float 
0.0	0.0	0.0
-0.0024707673	0.0	0.0
-0.0046150495	0.0	0.0
0.0	-0.0038478423	0.0
-0.0024765536	-0.0038720479	0.0
-0.0051872203	-0.0037368801	0.0
0.0	-0.0070413128	0.0
-0.002579034	-0.0082936791	0.0
-0.0050550817	-0.0069229522	0.0
-0.0267041277	-0.0239415629	0.0046633779
-0.0024384777	-0.0230372393	0.0169661809
0.0217495511	-0.0237823504	0.0046707013
-0.0266800441	-0.0038928093	0.0133488381
-0.0025076601	-0.0038576232	0.0257295827
0.0217223856	-0.0037593005	0.0133364114
-0.026754584	0.0160034225	0.0047095652
-0.0025503252	0.015468704	0.0170007464
0.0216264794	0.0161379689	0.004695509
-0.0628408555	-0.0535149929	0.0636670737
-0.0024470559	-0.053702778	0.0767054911
0.0579833631	-0.0533896603	0.0636503236
-0.0630356522	-0.0039506047	0.0721314494
-0.0024915665	-0.0038624282	0.0854017414
0.0580257217	-0.0038125128	0.072130583
-0.0629767203	0.0456854812	0.0636846262
-0.0025499343	0.0459095	0.0767579828
0.0578888932	0.0458203616	0.0636771166

VECTORS	v 	float 
0.0	0.0	0.0
7.90006e-05	0.0	0.0
0.000151863	0.0	0.0
0.0	6.53744e-05	0.0
7.28049e-05	6.24246e-05	0.0
0.0001506508	6.5419e-05	0.0
0.0	0.000123517	0.0
8.19368e-05	0.0001304809	0.0
0.0001598743	0.0001236699	0.0
5.51539e-05	5.9542e-05	8.71547e-05
7.51991e-05	4.25558e-05	3.71422e-05
9.69803e-05	5.74337e-05	8.6768e-05
4.51954e-05	6.46262e-05	5.72326e-05
7.77294e-05	6.49745e-05	7.9659e-06
0.0001085972	6.28136e-05	5.72873e-05
5.58768e-05	7.16968e-05	8.61949e-05
7.63649e-05	8.56297e-05	3.52499e-05
9.78967e-05	7.01589e-05	8.60516e-05
0.000201106	0.0001518805	4.09952e-05
7.66166e-05	0.0001419081	-3.28203e-05
-4.85273e-05	0.0001507213	4.00972e-05
0.0001846994	6.65109e-05	-1.5658e-06
7.63289e-05	6.52111e-05	-7.39611e-05
-3.1308e-05	6.50573e-05	-8.933e-07
0.0002028741	-1.94969e-05	3.93805e-05
7.76808e-05	-1.07619e-05	-3.37632e-05
-4.77534e-05	-2.12163e-05	3.85618e-05

VECTORS	a 	float 
0.0	0.0	0.0
0.8941567548	0.0	0.0
1.7844316536	0.0	0.0
0.0	0.7222538534	0.0
0.8845218119	0.7124325457	0.0
1.7723189932	0.7220818512	0.0
0.0	1.4387119971	0.0
0.896794511	1.4292457616	0.0
1.791309282	1.4383557758	0.0
-0.0066360412	0.0087059686	-3.0694963676
0.8881687001	-0.0028618697	-3.086276885
1.7841724684	0.0066718984	-3.070020125
-0.0142209468	0.7173508128	-3.0773022192
0.8913297577	0.7187625186	-3.0914470449
1.7956655546	0.7155572055	-3.0768324382
-0.0058372085	1.4275560774	-3.070315708
0.8893587825	1.4389843459	-3.0879910752
1.7852422512	1.426007318	-3.0706743922
-0.0041437057	-0.0023761904	-6.1576470046
0.8898572544	-0.0165567654	-6.1913035588
1.7834673441	-0.0038065857	-6.1586953104
-0.0255697269	0.7198628514	-6.1764906584
0.8894435291	0.7182307365	-6.2057199088
1.8049543198	0.7182052202	-6.1754648701
-0.002258454	1.4417395849	-6.1593750717
0.8911745692	1.4534688372	-6.1918975482
1.7845127641	1.4398586662	-6.1603231074

SCALARS	theta	float 1
LOOKUP_TABLE	default
299.1135242838
299.1625774251
299.1165250437
299.136678191
299.1809126494
299.1365793415
299.1172156616
299.1580240079
299.1171042008
305.077695796
305.1041896597
305.0773802811
305.0896660789
305.1170892427
305.0897947838
305.0767109806
305.1045233475
305.0767086375
311.9042027209
311.9175843238
311.9041222556
311.9080626895
311.9214923694
311.9079852082
311.9044502334
311.9176060498
311.9044664063

SCALARS	sig_11	float	1
LOOKUP_TABLE	default
14.5822322348
24.1919178681
15.4258433455
21.8476718935
30.3131942479
21.444933492
14.9339360802
23.0437607934
15.0020486016
-7.1008894562
-3.0944427288
-7.1614895234
-3.9232333084
0.21391002
-3.8998365925
-7.3374199457
-3.2156033803
-7.3498335078
-15.6972823509
-15.4287925614
-15.6795821997
-15.7286667947
-15.4331126688
-15.7344875476
-15.654331503
-15.4147403084
-15.6481479082

SCALARS	sig_22	float	1
LOOKUP_TABLE	default
9.3385137366
18.2882427235
9.9992168592
17.202096277
24.495623209
17.1962121528
10.917807444
16.8445697617
10.9641141172
-6.0719191534
-3.3295785186
-6.1216160715
-2.7881383607
0.1229375663
-2.7865527587
-6.2119449512
-3.2464534964
-6.2140297986
-11.3559123641
-11.1441012885
-11.3435630561
-11.4943984776
-11.2741693328
-11.4891034875
-11.3031970414
-11.1765088242
-11.3041348185

SCALARS	sig_33	float	1
LOOKUP_TABLE	default
23.8780673213
47.4622525087
24.3093366944
41.271763286
64.0883088302
41.1225452753
24.5385723202
46.7966506929
24.5432147767
-9.5562420124
1.9793585991
-9.605589367
-1.361225161
10.3522074965
-1.3591008156
-9.635424576
2.0234824082
-9.6465328915
-45.1055224677
-43.9995648237
-45.1288233753
-45.5097467555
-44.2633019314
-45.494697916
-45.1144157087
-43.9838164414
-45.0954031393

SCALARS vonMises	float	1
LOOKUP_TABLE	default
62.7234802559
47.0887768566
62.2863436259
50.8249236893
33.4194064716
51.0457163119
62.1758725402
48.1121750147
62.2319519854
42.8697318795
39.1494730541
42.7870553481
40.8321246144
38.0707581387
40.8710530657
42.7640620215
39.3020863447
42.7722071385
45.876123768
45.8964486126
45.9643289105
46.0806213827
46.0483936025
46.0473518022
46.0235855001
45.8362343032
46.0167695325
