# vtk DataFile Version 2.0
Results
ASCII
DATASET UNSTRUCTURED_GRID
POINTS         27           float
0.0	0.0	0.0	
50.0	0.0	0.0	
100.0	0.0	0.0	
0.0	40.0	0.0	
50.0	40.0	0.0	
100.0	40.0	0.0	
0.0	80.0	0.0	
50.0	80.0	0.0	
100.0	80.0	0.0	
0.0	0.0	70.0	
50.0	0.0	70.0	
100.0	0.0	70.0	
0.0	40.0	70.0	
50.0	40.0	70.0	
100.0	40.0	70.0	
0.0	80.0	70.0	
50.0	80.0	70.0	
100.0	80.0	70.0	
0.0	0.0	140.0	
50.0	0.0	140.0	
100.0	0.0	140.0	
0.0	40.0	140.0	
50.0	40.0	140.0	
100.0	40.0	140.0	
0.0	80.0	140.0	
50.0	80.0	140.0	
100.0	80.0	140.0	

CELLS	8	72
 8	0	1	4	3	9	10	13	12	
 8	1	2	5	4	10	11	14	13	
 8	4	5	8	7	13	14	17	16	
 8	3	4	7	6	12	13	16	15	
 8	9	10	13	12	18	19	22	21	
 8	10	11	14	13	19	20	23	22	
 8	13	14	17	16	22	23	26	25	
 8	12	13	16	15	21	22	25	24	

CELL_TYPES	8
 12
 12
 12
 12
 12
 12
 12
 12

POINT_DATA	27
VECTORS	u 	float 
0.0	0.0	0.0
-0.0150897	0.0	0.0
-0.0297372162	0.0	0.0
0.0	-0.0126130149	0.0
-0.0151177389	-0.0126459865	0.0
-0.0305459715	-0.0124156587	0.0
0.0	-0.0241388012	0.0
-0.0152835579	-0.0261994029	0.0
-0.0304746442	-0.0239003569	0.0
-0.0262515618	-0.0203128271	-0.0191921264
-0.0150437646	-0.0184813273	0.0017028909
-0.0039454344	-0.0200329042	-0.0191881491
-0.0261609824	-0.0126915364	-0.0050714772
-0.0151601033	-0.0126252389	0.0158567549
-0.0040843762	-0.0124557781	-0.0051003131
-0.02635254	-0.0053219177	-0.0191076486
-0.0152410454	-0.0065228508	0.0017713221
-0.0041568905	-0.0050862885	-0.0191353589
-0.1138745095	-0.0965592245	0.0446966804
-0.0150502223	-0.0963246646	0.0788108496
0.0838274333	-0.09633684	0.0446621764
-0.1138599758	-0.0127965133	0.0692579595
-0.0151320185	-0.0126425196	0.1036715631
0.0835607959	-0.0125530521	0.0692488785
-0.1141113519	0.0710850059	0.0447395658
-0.0152323876	0.0709247157	0.0789089826
0.0836588763	0.0713225029	0.0447192686

VECTORS	v 	float 
0.0	0.0	0.0
-1.65336e-05	0.0	0.0
-3.26146e-05	0.0	0.0
0.0	-4.42484e-05	0.0
-1.11316e-05	-3.4973e-05	0.0
-2.27647e-05	-4.41782e-05	0.0
0.0	-8.86645e-05	0.0
-1.64588e-05	-6.98117e-05	0.0
-3.2762e-05	-8.84518e-05	0.0
-0.0001877442	-0.0002081911	0.00012619
-1.31921e-05	-0.0002136268	8.50484e-05
0.0001612702	-0.0002080625	0.000126628
-0.0001856215	-3.87496e-05	0.0001058835
-1.44422e-05	-4.04839e-05	6.18823e-05
0.0001570081	-3.8694e-05	0.0001053514
-0.0001876863	0.0001306443	0.0001263274
-1.32519e-05	0.0001326941	8.5123e-05
0.0001611601	0.0001305726	0.0001266873
0.0003179453	0.0002664976	0.0001928875
-1.40257e-05	0.0002697053	7.149e-06
-0.0003459264	0.0002664546	0.0001932426
0.0003303549	-3.99365e-05	3.70539e-05
-1.3459e-05	-3.93337e-05	-0.0001526007
-0.0003574723	-3.99438e-05	3.66504e-05
0.0003178702	-0.0003464754	0.0001933686
-1.39777e-05	-0.0003483106	6.8483e-06
-0.0003457895	-0.0003464116	0.0001936618

VECTORS	a 	float 
0.0	0.0	0.0
-0.8971269097	0.0	0.0
-1.7935908875	0.0	0.0
0.0	-0.7177947154	0.0
-0.8936143028	-0.7138323192	0.0
-1.7877890987	-0.7177367381	0.0
0.0	-1.4341241111	0.0
-0.8979440051	-1.4287222369	0.0
-1.7955395831	-1.434010378	0.0
-0.0033274669	-0.0025611504	3.079556463
-0.8949686319	0.0007789026	3.0828766038
-1.7868479495	-0.0019824054	3.0797573697
-0.0014613388	-0.7157158904	3.0803257288
-0.8960361627	-0.7163086114	3.0823088441
-1.7903591894	-0.7151942409	3.0801287041
-0.00360236	-1.4292667739	3.0797889655
-0.8953018335	-1.4330626554	3.0833447105
-1.7871401173	-1.4288016057	3.0799452117
0.0038935018	0.0024587404	6.155759603
-0.8955581523	0.0089964317	6.1703325604
-1.7949604754	0.0028724194	6.1561202373
0.0116046805	-0.7165390547	6.1648625289
-0.8953792841	-0.7160169759	6.1774054339
-1.8024416903	-0.7160748782	6.16449878
0.0033973511	-1.4354622369	6.1562586515
-0.8959293149	-1.4411156625	6.1704691227
-1.7952646846	-1.4349477993	6.1565869051

SCALARS	theta	float 1
LOOKUP_TABLE	default
297.2149888592
297.2228944426
297.2145671279
297.2060866485
297.2096607856
297.2083511259
297.2199197424
297.2185768048
297.2188555133
301.8955931337
302.0282518066
301.8950234131
301.9809533655
302.1139485505
301.9803003863
301.8950448659
302.0295576018
301.8951883879
319.6565849404
319.9459642193
319.6568442394
319.8463829546
320.1361668632
319.8466180176
319.6569910401
319.9457552527
319.6568195022

SCALARS	sig_11	float	1
LOOKUP_TABLE	default
-5.5124144855
11.4417119583
-4.2194243308
6.6607325456
21.7974062067
6.129374701
-4.9638718847
9.4743766255
-4.959038021
12.3662447132
21.6344207347
12.2825508026
20.2200440597
29.6811556686
20.2524951839
11.9690618448
21.4255993746
11.9570813678
-54.6180988535
-50.2207018773
-54.5981067727
-50.0944494621
-45.6449620429
-50.1019551376
-54.5444634139
-50.1925895168
-54.5392273957

SCALARS	sig_22	float	1
LOOKUP_TABLE	default
-8.9199816402
6.8598357895
-7.7776428014
4.280948087
17.2984083239
4.3743411883
-6.3042660826
4.4265459602
-6.1862685111
9.1921166791
15.6781950275
9.12938487
17.4229365377
24.1724685012
17.4329901528
8.9550013023
15.8099183682
8.9636786367
-42.1866726965
-38.9825497374
-42.1763512717
-37.2803097537
-34.0553014216
-37.2751857402
-42.0992079485
-39.0339784282
-42.1069964587

SCALARS	sig_33	float	1
LOOKUP_TABLE	default
-2.0076156882
38.7567279109
-1.2873642367
26.6774246004
66.0857025289
26.4752694656
-0.9085430793
37.6123771554
-0.9314227149
20.1187142151
48.9586482744
20.049311856
42.456410124
71.5393710571
42.4570093017
19.9876871683
49.0256548698
19.9683440499
-141.4753462668
-122.0369742578
-141.5203286011
-124.7165145801
-105.0426514728
-124.6931579415
-141.4830323683
-122.0071060788
-141.4589688238

SCALARS vonMises	float	1
LOOKUP_TABLE	default
48.5007434701
38.1860637895
47.939310215
44.4807636055
39.9246137479
44.7774663228
48.0641839693
40.0198446114
48.2132931241
87.0002076477
83.5533107687
87.2178545904
83.238490998
77.6476329303
83.2058499958
87.3351167608
83.2580904134
87.3375019619
120.6725536791
113.7421009895
120.8061284341
116.4987877586
109.8806682479
116.4598562798
120.9118064289
113.6342066156
120.8921093737
