# vtk DataFile Version 2.0
Results
ASCII
DATASET UNSTRUCTURED_GRID
POINTS         27           float
0.0	0.0	0.0	
50.0	0.0	0.0	
100.0	0.0	0.0	
0.0	40.0	0.0	
50.0	40.0	0.0	
100.0	40.0	0.0	
0.0	80.0	0.0	
50.0	80.0	0.0	
100.0	80.0	0.0	
0.0	0.0	70.0	
50.0	0.0	70.0	
100.0	0.0	70.0	
0.0	40.0	70.0	
50.0	40.0	70.0	
100.0	40.0	70.0	
0.0	80.0	70.0	
50.0	80.0	70.0	
100.0	80.0	70.0	
0.0	0.0	140.0	
50.0	0.0	140.0	
100.0	0.0	140.0	
0.0	40.0	140.0	
50.0	40.0	140.0	
100.0	40.0	140.0	
0.0	80.0	140.0	
50.0	80.0	140.0	
100.0	80.0	140.0	

CELLS	8	72
 8	0	1	4	3	9	10	13	12	
 8	1	2	5	4	10	11	14	13	
 8	4	5	8	7	13	14	17	16	
 8	3	4	7	6	12	13	16	15	
 8	9	10	13	12	18	19	22	21	
 8	10	11	14	13	19	20	23	22	
 8	13	14	17	16	22	23	26	25	
 8	12	13	16	15	21	22	25	24	

CELL_TYPES	8
 12
 12
 12
 12
 12
 12
 12
 12

POINT_DATA	27
VECTORS	u 	float 
0.0	0.0	0.0
-0.0142845901	0.0	0.0
-0.0281195232	0.0	0.0
0.0	-0.0129613527	0.0
-0.0143030076	-0.012996488	0.0
-0.0289257928	-0.0127880132	0.0
0.0	-0.0249314467	0.0
-0.0144549362	-0.0268220092	0.0
-0.0287877012	-0.0247331157	0.0
-0.0313570882	-0.0264335725	-0.0135636276
-0.0142399629	-0.0249407793	0.0053826309
0.0027679739	-0.0261855723	-0.0135563895
-0.0312709583	-0.0130326718	-0.0005023358
-0.0143450501	-0.0129756239	0.0185194528
0.0026587884	-0.0128244986	-0.0005247221
-0.0314417188	0.0001381532	-0.0134891049
-0.0144143423	-0.0007865244	0.0054414663
0.0025794322	0.0003469266	-0.0135121826
-0.1005595481	-0.0853610923	0.0518745525
-0.0142492901	-0.0854504382	0.0781498838
0.0721131831	-0.0851651347	0.0518459476
-0.1006493222	-0.0131254252	0.0701446504
-0.0143202325	-0.0129885536	0.0967336823
0.0719723384	-0.0129102541	0.0701398571
-0.1007704171	0.0592188865	0.0519094072
-0.0144099219	0.0593689997	0.07823603
0.0719653528	0.0594287657	0.0518942233

VECTORS	v 	float 
0.0	0.0	0.0
3.31272e-05	0.0	0.0
6.29356e-05	0.0	0.0
0.0	2.37681e-05	0.0
2.89701e-05	1.88921e-05	0.0
6.06694e-05	2.3235e-05	0.0
0.0	4.16132e-05	0.0
3.52017e-05	4.24579e-05	0.0
6.8791e-05	4.07277e-05	0.0
-7.36629e-05	-6.90858e-05	0.0001314822
3.03502e-05	-7.98888e-05	7.87425e-05
0.0001353675	-7.09777e-05	0.0001312712
-7.92061e-05	2.15659e-05	9.99193e-05
3.22375e-05	2.21675e-05	4.8405e-05
0.0001427522	1.99313e-05	0.0001001918
-7.29543e-05	0.0001137386	0.0001306691
3.15331e-05	0.0001227672	7.74932e-05
0.0001364924	0.0001122931	0.0001306335
0.0002691189	0.0002272811	0.0001084286
3.11901e-05	0.0002216119	-3.24837e-05
-0.0002071218	0.0002260129	0.0001079327
0.0002577222	2.32801e-05	2.282e-07
3.11998e-05	2.19729e-05	-0.0001389188
-0.0001949126	2.18057e-05	8.317e-07
0.0002707464	-0.0001811799	0.0001070262
3.23021e-05	-0.0001771232	-3.3022e-05
-0.0002062246	-0.0001828085	0.000106604

VECTORS	a 	float 
0.0	0.0	0.0
0.8964083194	0.0	0.0
1.7916127583	0.0	0.0
0.0	0.7186541528	0.0
0.8916856179	0.7134051793	0.0
1.7843908155	0.7185629662	0.0
0.0	1.4350666139	0.0
0.8975487688	1.4284647823	0.0
1.7944385323	1.4348861038	0.0
0.0012784445	0.0035621058	-3.0777714927
0.8934943713	-0.0011827977	-3.0832437913
1.7861123592	0.0027194647	-3.0780367151
-0.001587685	0.715929599	-3.0796653161
0.8949638137	0.7167129413	-3.083472343
1.7910972638	0.7151781586	-3.0794060932
0.0016479096	1.4289015827	-3.0781162745
0.8939842606	1.4340825759	-3.083926911
1.7865497154	1.4282412213	-3.0783129707
-0.0045450087	-0.002656805	-6.156647352
0.8943001685	-0.0107594802	-6.1744774359
1.7930378034	-0.0032460555	-6.15713396
-0.0149491346	0.717081772	-6.1674424056
0.894064874	0.7163456248	-6.1827018294
1.8032301906	0.7164104407	-6.1669517921
-0.0038091213	1.4366961805	-6.1573775855
0.8948323066	1.4435996871	-6.1746857584
1.793466306	1.4359441244	-6.1578173951

SCALARS	theta	float 1
LOOKUP_TABLE	default
296.9989031887
297.0360322988
297.000765514
297.0090237556
297.041224291
297.0100503822
297.0034387408
297.0314217361
297.0032261813
303.3897814563
303.4882867088
303.3892275423
303.4416419257
303.5409255482
303.4413951086
303.3890272483
303.4892241314
303.3890393221
317.0737718347
317.2537157478
317.073833092
317.1729695363
317.3530632084
317.1729875602
317.0741754215
317.253664738
317.0740816685

SCALARS	sig_11	float	1
LOOKUP_TABLE	default
6.9677318646
22.042367557
8.2030222859
18.0890735818
31.4519649579
17.5373866495
7.4917822418
20.2616541917
7.5448411215
1.7212893638
8.9345647253
1.6376492688
7.8238494542
15.2240421103
7.8569093019
1.359694985
8.7463730322
1.3447911257
-38.3018337096
-36.2214291321
-38.2791600269
-36.0778383538
-33.9518697517
-36.0855228551
-38.2352879806
-36.1976304125
-38.2279884657

SCALARS	sig_22	float	1
LOOKUP_TABLE	default
1.6952415338
15.7424424501
2.7205165991
13.751657685
25.2694487323
13.7865140762
4.0942689648
13.5267424255
4.1807152614
0.7262000419
5.7554373169
0.660244437
7.1311042845
12.4084784962
7.1370542242
0.5105235309
5.8775454584
0.5127812968
-29.1289498102
-27.562769411
-29.1148652281
-26.7227284422
-25.1390477614
-26.7162528071
-29.0491477582
-27.6110685935
-29.0533215223

SCALARS	sig_33	float	1
LOOKUP_TABLE	default
15.0139835303
51.6465805842
15.6746288139
41.3982191062
76.8140100892
41.1900016899
16.0252603847
50.6085719776
16.0149654592
4.0248903049
26.3592121388
3.9569298856
20.9664535404
43.5455729899
20.9688626749
3.9044188776
26.4220857398
3.8871195374
-102.6763546412
-92.2387111837
-102.7143220205
-94.3527770565
-83.6989794014
-94.3306368559
-102.6858016256
-92.2133033013
-102.6605687385

SCALARS vonMises	float	1
LOOKUP_TABLE	default
66.3198473134
50.3563581867
65.7164170147
56.3543571658
42.275061504
56.6539245994
65.6435055846
51.9511501289
65.7501822036
69.9537497898
66.2510775555
69.9476080716
67.549266144
64.3175839413
67.5567870686
69.951842843
66.2011730215
69.9630138706
92.4819109119
89.0980311882
92.6097931215
90.5100506856
87.1983979008
90.4673994715
92.7027773357
89.0022530304
92.6885822437
