# vtk DataFile Version 2.0
Results
ASCII
DATASET UNSTRUCTURED_GRID
POINTS         27           float
0.0	0.0	0.0	
50.0	0.0	0.0	
100.0	0.0	0.0	
0.0	40.0	0.0	
50.0	40.0	0.0	
100.0	40.0	0.0	
0.0	80.0	0.0	
50.0	80.0	0.0	
100.0	80.0	0.0	
0.0	0.0	70.0	
50.0	0.0	70.0	
100.0	0.0	70.0	
0.0	40.0	70.0	
50.0	40.0	70.0	
100.0	40.0	70.0	
0.0	80.0	70.0	
50.0	80.0	70.0	
100.0	80.0	70.0	
0.0	0.0	140.0	
50.0	0.0	140.0	
100.0	0.0	140.0	
0.0	40.0	140.0	
50.0	40.0	140.0	
100.0	40.0	140.0	
0.0	80.0	140.0	
50.0	80.0	140.0	
100.0	80.0	140.0	

CELLS	8	72
 8	0	1	4	3	9	10	13	12	
 8	1	2	5	4	10	11	14	13	
 8	4	5	8	7	13	14	17	16	
 8	3	4	7	6	12	13	16	15	
 8	9	10	13	12	18	19	22	21	
 8	10	11	14	13	19	20	23	22	
 8	13	14	17	16	22	23	26	25	
 8	12	13	16	15	21	22	25	24	

CELL_TYPES	8
 12
 12
 12
 12
 12
 12
 12
 12

POINT_DATA	27
VECTORS	u 	float 
0.0	0.0	0.0
-0.0151107763	0.0	0.0
-0.0297779774	0.0	0.0
0.0	-0.0126924644	0.0
-0.0151380974	-0.0127255685	0.0
-0.0305879363	-0.0124963547	0.0
0.0	-0.0243020784	0.0
-0.0153034427	-0.0263550125	0.0
-0.0305121766	-0.0240658609	0.0
-0.0266133797	-0.0207261126	-0.0189385402
-0.0150647641	-0.0189151348	0.0018702269
-0.0036258288	-0.020447784	-0.0189343291
-0.0265217617	-0.0127706277	-0.0048598888
-0.0151806018	-0.0127048303	0.0159850966
-0.0037642359	-0.0125362668	-0.0048883461
-0.0267134692	-0.0050658359	-0.0188545549
-0.0152608872	-0.0062492495	0.0019381848
-0.0038361358	-0.0048315648	-0.0188819923
-0.1132428643	-0.0960260712	0.0450892599
-0.0150714537	-0.0958154533	0.0787776585
0.0831533613	-0.0958050348	0.0450550947
-0.1132327928	-0.0128750194	0.069302176
-0.0151526662	-0.0127218746	0.1032916081
0.0828921515	-0.0126329865	0.06929336
-0.1134784277	0.0703943797	0.0451317319
-0.0152525274	0.070257286	0.0788752053
0.0829858711	0.0706304861	0.0451117467

VECTORS	v 	float 
0.0	0.0	0.0
-1.32913e-05	0.0	0.0
-2.62067e-05	0.0	0.0
0.0	-4.05802e-05	0.0
-7.8725e-06	-3.12193e-05	0.0
-1.61869e-05	-4.04873e-05	0.0
0.0	-8.13087e-05	0.0
-1.32177e-05	-6.23219e-05	0.0
-2.63573e-05	-8.10469e-05	0.0
-0.0001801524	-0.0002001752	0.0001261355
-9.9334e-06	-0.0002052126	8.49431e-05
0.0001602135	-0.0002000305	0.0001265698
-0.0001781152	-3.50334e-05	0.0001055112
-1.11919e-05	-3.67756e-05	6.13457e-05
0.0001559868	-3.4964e-05	0.0001049639
-0.0001801055	0.0001300564	0.0001262768
-1.0007e-05	0.0001317031	8.50179e-05
0.0001600883	0.0001299966	0.0001266337
0.0003159095	0.0002645992	0.0001886535
-1.0763e-05	0.0002686053	7.3947e-06
-0.00033737	0.0002645715	0.0001889998
0.0003284297	-3.6233e-05	3.67791e-05
-1.02008e-05	-3.56168e-05	-0.0001484906
-0.0003490257	-3.62246e-05	3.63686e-05
0.0003158215	-0.0003371676	0.0001891386
-1.07266e-05	-0.0003397804	7.0957e-06
-0.0003372445	-0.0003370887	0.0001894227

VECTORS	a 	float 
0.0	0.0	0.0
-0.8971782819	0.0	0.0
-1.7936980724	0.0	0.0
0.0	-0.7178221699	0.0
-0.893615102	-0.7137627396	0.0
-1.7877879529	-0.7177555996	0.0
0.0	-1.4341591925	0.0
-0.8979977049	-1.4286000135	0.0
-1.7956598675	-1.4340290337	0.0
-0.0033731171	-0.0025362866	3.0795508849
-0.8949863569	0.0008549935	3.082892106
-1.786836843	-0.0019485319	3.0797547646
-0.0014934609	-0.7156874442	3.0803263088
-0.8960684428	-0.7162955674	3.0822848243
-1.7903912694	-0.7151587526	3.080121073
-0.003651421	-1.4292399041	3.0797866603
-0.8953261313	-1.4331069842	3.0833624271
-1.7871363681	-1.4287693595	3.0799450348
0.0038825849	0.0024306733	6.155659352
-0.8955825462	0.0091339745	6.170540432
-1.794997634	0.0028505621	6.1560204337
0.0117496807	-0.7165252584	6.1649686596
-0.8954008668	-0.7159928214	6.1777733474
-1.8026312852	-0.7160540773	6.1645999183
0.003379215	-1.435405231	6.1561643146
-0.8959585472	-1.4412070287	6.1706766208
-1.7953056117	-1.4348832776	6.1564927083

SCALARS	theta	float 1
LOOKUP_TABLE	default
297.1877422208
297.197483775
297.1874648306
297.179955638
297.1853597461
297.182149752
297.1926281923
297.1931679531
297.1916258574
301.982137268
302.1135869426
301.981565772
302.0656324521
302.1974443282
302.065002809
301.9815854246
302.114866959
301.9817178724
319.5198729272
319.8042484041
319.5201208046
319.704491272
319.9892555493
319.7047126277
319.5202753278
319.8040530527
319.5201099081

SCALARS	sig_11	float	1
LOOKUP_TABLE	default
-4.7425447559
12.1183255844
-3.4509403128
7.3847477362
22.4316778003
6.8509072514
-4.1944871597
10.1596835234
-4.1863970665
11.7342029353
20.8769827224
11.6503829129
19.4877881613
28.823510331
19.5203657207
11.3386416655
20.6691502469
11.3264500669
-53.6819500207
-49.4429412943
-53.6617571503
-49.3003256998
-45.0095334096
-49.3078589684
-53.6086386461
-49.415067187
-53.6032656312

SCALARS	sig_22	float	1
LOOKUP_TABLE	default
-8.2729016327
7.4218595386
-7.1363054127
4.8783092939
17.8211021817
4.9678140555
-5.6667740872
4.9985275944
-5.5507559605
8.687443186
15.0860908871
8.6244057019
16.8154167526
23.4770288103
16.825234167
8.4512960019
15.2173950795
8.4595705848
-41.4381627484
-38.3436453242
-41.4275892095
-36.6837184231
-33.5684529269
-36.6784970353
-41.3510438306
-38.3949630787
-41.3586197225

SCALARS	sig_33	float	1
LOOKUP_TABLE	default
-0.9497357002
39.6207830732
-0.2321056969
27.6401831922
66.8613746397
27.4371522713
0.1456515262
38.4812704265
0.1234880391
19.1607001335
47.6333481578
19.0913153639
41.1979560188
69.9143122517
41.198720095
19.0301059862
47.7001811419
19.0108830959
-139.2948217615
-120.4011181576
-139.3394388853
-123.0361149528
-103.9076979899
-123.0128105855
-139.3026100366
-120.3714970591
-139.278451149

SCALARS vonMises	float	1
LOOKUP_TABLE	default
49.6408644045
38.9466823721
49.0743752452
45.258655915
40.1010521227
45.5561431311
49.1815929946
40.7673048008
49.3276085294
85.8433708809
82.4983695198
86.0473848171
82.2817276597
76.9092293228
82.2510444307
86.1568540329
82.2158618059
86.1602103186
119.122999021
112.4054273606
119.2564457961
115.0787374184
108.6571352223
115.0395149908
119.3614642096
112.2980955478
119.342109988
