# vtk DataFile Version 2.0
Results
ASCII
DATASET UNSTRUCTURED_GRID
POINTS         27           float
0.0	0.0	0.0	
50.0	0.0	0.0	
100.0	0.0	0.0	
0.0	40.0	0.0	
50.0	40.0	0.0	
100.0	40.0	0.0	
0.0	80.0	0.0	
50.0	80.0	0.0	
100.0	80.0	0.0	
0.0	0.0	70.0	
50.0	0.0	70.0	
100.0	0.0	70.0	
0.0	40.0	70.0	
50.0	40.0	70.0	
100.0	40.0	70.0	
0.0	80.0	70.0	
50.0	80.0	70.0	
100.0	80.0	70.0	
0.0	0.0	140.0	
50.0	0.0	140.0	
100.0	0.0	140.0	
0.0	40.0	140.0	
50.0	40.0	140.0	
100.0	40.0	140.0	
0.0	80.0	140.0	
50.0	80.0	140.0	
100.0	80.0	140.0	

CELLS	8	72
 8	0	1	4	3	9	10	13	12	
 8	1	2	5	4	10	11	14	13	
 8	4	5	8	7	13	14	17	16	
 8	3	4	7	6	12	13	16	15	
 8	9	10	13	12	18	19	22	21	
 8	10	11	14	13	19	20	23	22	
 8	13	14	17	16	22	23	26	25	
 8	12	13	16	15	21	22	25	24	

CELL_TYPES	8
 12
 12
 12
 12
 12
 12
 12
 12

POINT_DATA	27
VECTORS	u 	float 
0.0	0.0	0.0
0.0008450923	0.0	0.0
0.0018342214	0.0	0.0
0.0	0.00671652	0.0
0.0007374607	0.0066624319	0.0
0.0013819957	0.0070188594	0.0
0.0	0.0147454006	0.0
0.0005396974	0.0122564562	0.0
0.0008629679	0.0152144826	0.0
0.0198973494	0.0283267267	-0.0324720424
0.0008679604	0.033130191	-0.0095440856
-0.0182063345	0.0287357168	-0.0325041754
0.0199859044	0.006585021	-0.0184862671
0.0007172516	0.0067044964	0.003857328
-0.0185361444	0.006944505	-0.0185665613
0.0197100553	-0.0154643078	-0.0323566043
0.0005727797	-0.0194157239	-0.0094183457
-0.0185190892	-0.0151092203	-0.0324150206
-0.1367325716	-0.1170464756	0.0025433261
0.0009009584	-0.1117862017	0.0657468775
0.1385642518	-0.1167005458	0.0024703769
-0.1358240708	0.0064345532	0.0525292073
0.0007635577	0.0066567793	0.1155037633
0.137342914	0.006799846	0.0524840822
-0.1370761644	0.1300603147	0.0026333806
0.0006222284	0.1249538988	0.0658891528
0.1383034028	0.1304148464	0.0025727887

VECTORS	v 	float 
0.0	0.0	0.0
0.0021119371	0.0	0.0
0.0042245947	0.0	0.0
0.0	0.0017075048	0.0
0.0021042343	0.0017041788	0.0
0.0042083211	0.0017108294	0.0
0.0	0.0034242297	0.0
0.0021124416	0.0033999781	0.0
0.0042219087	0.0034292371	0.0
-0.0001218698	-4.28761e-05	-0.0079590764
0.0021082701	-2.0378e-05	-0.0077343323
0.0043384487	-4.0555e-05	-0.007959556
-0.0001238317	0.0017055738	-0.0078083135
0.002109228	0.0017067883	-0.0075857322
0.0043420098	0.0017073347	-0.0078090415
-0.0001225405	0.0034520424	-0.0079585507
0.0021063191	0.0034362146	-0.0077348518
0.0043360832	0.003453738	-0.0079593143
-0.0013110235	-0.0011118586	-0.0150775861
0.0021098315	-0.0010995996	-0.014613954
0.0055311108	-0.0011097522	-0.0150794076
-0.0013140474	0.0017055349	-0.0147249189
0.0021083931	0.001706712	-0.0142582097
0.0055306194	0.0017078031	-0.0147243551
-0.0013131196	0.0045240938	-0.0150780326
0.0021082323	0.0045117697	-0.0146133585
0.0055295753	0.0045262006	-0.0150796536

VECTORS	a 	float 
0.0	0.0	0.0
0.811101382	0.0	0.0
1.6218113407	0.0	0.0
0.0	0.6495228519	0.0
0.8098532268	0.6483526249	0.0
1.6200320246	0.6495564857	0.0
0.0	1.298522841	0.0
0.8114246213	1.2970753864	0.0
1.6225632111	1.2985822252	0.0
0.0036589089	0.0042035474	-2.7887834938
0.8103512722	0.0035416589	-2.7894843715
1.6171713063	0.0040119951	-2.7888482566
0.003217846	0.6489373079	-2.788677947
0.8107297197	0.6491126815	-2.7892409979
1.6181127004	0.6487628972	-2.7886455706
0.0037449607	1.2938158028	-2.7888512727
0.8104510286	1.2945652027	-2.7896879685
1.6172481593	1.2936632496	-2.7889079045
-0.006307155	-0.0051700723	-5.5737070293
0.8105710856	-0.0060206261	-5.5746918867
1.6274227604	-0.0053030693	-5.5738609332
-0.0080197295	0.6492134409	-5.5732529973
0.8105046031	0.6490523893	-5.5738026788
1.6290684559	0.6490589213	-5.5731268273
-0.0061257391	1.3035788733	-5.5738951885
0.8107020051	1.3041486371	-5.574742553
1.6275245777	1.303399268	-5.5740412067

SCALARS	theta	float 1
LOOKUP_TABLE	default
302.5750623332
302.2815223587
302.5586970418
302.4513040816
302.1893586954
302.4488374927
302.5497830174
302.3120977438
302.5518784784
294.3159251597
294.0061270934
294.3180120758
294.1348093589
293.8203199269
294.1347723001
294.3220770898
294.0033636848
294.3218510554
328.9478691967
328.536343566
328.9480017403
328.6813439173
328.2697702739
328.6813539679
328.9463293475
328.5364516606
328.9462818159

SCALARS	sig_11	float	1
LOOKUP_TABLE	default
-87.154050951
-61.2989618847
-86.046459541
-71.4311643958
-47.8663953403
-71.3496480612
-86.2841317155
-64.291635141
-86.8467450995
62.7439795807
92.6238292246
62.6715605098
88.3472322459
118.2772881968
88.3372431342
62.2336977053
92.352881867
62.2532507539
-150.3014823916
-112.0618501722
-150.3021072266
-114.8613336137
-76.5385887596
-114.8489710489
-150.1906465143
-112.0177495116
-150.2100811553

SCALARS	sig_22	float	1
LOOKUP_TABLE	default
-76.5583825023
-53.1657463972
-74.9826004342
-59.4590187193
-39.8391443896
-58.6844144453
-73.0568882684
-56.561964582
-72.8251152729
48.8467493858
70.0452902418
48.81373119
75.3475421484
96.7209085167
75.3731090744
48.5352256917
70.2166197937
48.5927643273
-120.8708025931
-93.1594310882
-120.8889947752
-83.4641451527
-55.7190472804
-83.4599817992
-120.7481921294
-93.2218977529
-120.7896620535

SCALARS	sig_33	float	1
LOOKUP_TABLE	default
-127.5251704914
-75.4387313048
-126.6743438103
-95.4177326054
-45.8071447194
-95.2790963529
-125.8306205484
-77.3048949135
-126.0850232553
89.0632152641
154.864860836
88.9642537856
143.9052805197
209.6287317631
143.8581059557
88.9105576389
154.9544574053
88.870061688
-342.0636177247
-257.9131567731
-342.1258134247
-263.6977067483
-179.3224678934
-263.6463921196
-342.0295363341
-257.8872390189
-342.0308809986

SCALARS vonMises	float	1
LOOKUP_TABLE	default
109.6128092221
94.9508402618
110.3835243307
80.1986608976
55.3713076292
80.2925774766
111.5972776612
93.6377406771
111.4293062833
231.1795250593
192.3995677269
231.5954324124
186.0037910978
134.7592298395
186.0241159769
231.9604817847
191.4325755393
231.8461737585
244.5319405668
212.9013807027
244.6352147046
224.5752949279
194.2857496329
224.5687409606
244.8159960837
212.7543710625
244.7537975579
