# vtk DataFile Version 2.0
Results
ASCII
DATASET UNSTRUCTURED_GRID
POINTS         27           float
0.0	0.0	0.0	
50.0	0.0	0.0	
100.0	0.0	0.0	
0.0	40.0	0.0	
50.0	40.0	0.0	
100.0	40.0	0.0	
0.0	80.0	0.0	
50.0	80.0	0.0	
100.0	80.0	0.0	
0.0	0.0	70.0	
50.0	0.0	70.0	
100.0	0.0	70.0	
0.0	40.0	70.0	
50.0	40.0	70.0	
100.0	40.0	70.0	
0.0	80.0	70.0	
50.0	80.0	70.0	
100.0	80.0	70.0	
0.0	0.0	140.0	
50.0	0.0	140.0	
100.0	0.0	140.0	
0.0	40.0	140.0	
50.0	40.0	140.0	
100.0	40.0	140.0	
0.0	80.0	140.0	
50.0	80.0	140.0	
100.0	80.0	140.0	

CELLS	8	72
 8	0	1	4	3	9	10	13	12	
 8	1	2	5	4	10	11	14	13	
 8	4	5	8	7	13	14	17	16	
 8	3	4	7	6	12	13	16	15	
 8	9	10	13	12	18	19	22	21	
 8	10	11	14	13	19	20	23	22	
 8	13	14	17	16	22	23	26	25	
 8	12	13	16	15	21	22	25	24	

CELL_TYPES	8
 12
 12
 12
 12
 12
 12
 12
 12

POINT_DATA	27
VECTORS	u 	float 
0.0	0.0	0.0
-0.0114464232	0.0	0.0
-0.0225469806	0.0	0.0
0.0	-0.0071147099	0.0
-0.0115064985	-0.0071406481	0.0
-0.023245333	-0.0068713949	0.0
0.0	-0.0130069981	0.0
-0.011683754	-0.0152966637	0.0
-0.0233889568	-0.0126793532	0.0
-0.0098225045	-0.0023150382	-0.0257641124
-0.0114076507	0.0004919348	-0.0026551632
-0.0130833642	-0.0019790924	-0.0257718498
-0.0098442695	-0.0072049186	-0.0108228006
-0.0115395845	-0.0071199166	0.012154392
-0.0131816044	-0.0069184723	-0.0108686894
-0.0099579459	-0.0123777289	-0.0256629221
-0.0116465422	-0.0144528156	-0.0025694494
-0.0133363843	-0.0120927288	-0.0257022859
-0.1317866837	-0.1119445764	0.0309624709
-0.0114015585	-0.1103055812	0.0798093259
0.1090306856	-0.1116724048	0.0309138046
-0.1316808315	-0.0073303593	0.0679416687
-0.0115058804	-0.0071459508	0.1169719183
0.108644037	-0.0070354425	0.0679203393
-0.1320684457	0.0974178367	0.0310206439
-0.0116234451	0.095882214	0.0799274385
0.1088229614	0.0977050218	0.0309864709

VECTORS	v 	float 
0.0	0.0	0.0
-0.0001475143	0.0	0.0
-0.000291572	0.0	0.0
0.0	-0.0001908408	0.0
-0.0001418243	-0.0001834507	0.0
-0.0002863704	-0.0001918575	0.0
0.0	-0.0003832265	0.0
-0.0001472723	-0.0003656006	0.0
-0.0002911767	-0.0003853217	0.0
-0.000482465	-0.0005153555	0.0001251727
-0.0001442821	-0.0005438689	8.29047e-05
0.00019307	-0.0005160551	0.0001259007
-0.0004775046	-0.0001863327	0.0001144962
-0.0001453392	-0.0001880499	7.45752e-05
0.0001877157	-0.0001870192	0.0001145745
-0.0004818968	0.0001430103	0.000125152
-0.0001436341	0.0001673466	8.28503e-05
0.000193766	0.0001422734	0.0001257708
0.0003783451	0.0003315688	0.0003467055
-0.000145487	0.000291346	-3.174e-07
-0.00066905	0.0003307049	0.0003476024
0.000386107	-0.0001870853	4.53637e-05
-0.0001445713	-0.0001870682	-0.0003016452
-0.0006756385	-0.0001879048	4.517e-05
0.0003789743	-0.0007060657	0.0003470135
-0.0001448307	-0.000665134	-7.955e-07
-0.0006683351	-0.0007067727	0.0003478586

VECTORS	a 	float 
0.0	0.0	0.0
-0.8957809195	0.0	0.0
-1.7907855311	0.0	0.0
0.0	-0.7170738646	0.0
-0.893602313	-0.7156467801	0.0
-1.7878351156	-0.717238208	0.0
0.0	-1.4331991544	0.0
-0.8965361715	-1.4319099911	0.0
-1.7923906085	-1.4335106159	0.0
-0.0021448396	-0.0032094541	3.0796804835
-0.8945088474	-0.0011935994	3.0824705608
-1.7871337691	-0.0028649338	3.0798034879
-0.0006185734	-0.7164555011	3.0803111727
-0.89519384	-0.7166456908	3.0829569858
-1.7895269424	-0.7161170463	3.080327415
-0.0023307649	-1.4299628719	3.0798272725
-0.8946712881	-1.4319118255	3.0828802254
-1.7872351566	-1.4296378437	3.0799275386
0.0041783414	0.0031890376	6.1583370568
-0.8949213679	0.0054224568	6.164922785
-1.7939902809	0.0034419477	6.1586847601
0.0078371348	-0.7168958937	6.1621028141
-0.8948176009	-0.7166437735	6.1678717298
-1.7975133241	-0.7166130234	6.1618696504
0.0038694668	-1.436941095	6.1586816833
-0.8951673699	-1.4387393247	6.165069053
-1.7941972081	-1.4366215435	6.1590052809

SCALARS	theta	float 1
LOOKUP_TABLE	default
298.8690722947
298.7957134261
298.8624842732
298.8198484701
298.7410065343
298.8238364464
298.8756401857
298.7917445001
298.8722480964
298.6631380685
298.7620549065
298.6629944966
298.7898151863
298.8879724529
298.7884575969
298.6621898451
298.7646705293
298.6629243854
324.3484885419
324.6719929268
324.3489887116
324.6753482534
324.9996530078
324.6761059405
324.3495158561
324.6707595939
324.34894291

SCALARS	sig_11	float	1
LOOKUP_TABLE	default
-36.8826298562
-16.6752336493
-35.6204148795
-23.4586017895
-5.1034645289
-23.8183528491
-36.3434606304
-18.9279954418
-36.5037630657
36.1345027186
51.3623276904
36.0589757676
48.4095802626
63.8121704294
48.4318769384
35.6926245927
51.117869161
35.6901351133
-91.1105410618
-78.0543751163
-91.0992877313
-79.6394629218
-66.5192244057
-79.6444370635
-91.0306212242
-78.0141328146
-91.0311052236

SCALARS	sig_22	float	1
LOOKUP_TABLE	default
-35.0037485668
-16.3541590637
-33.6726557357
-20.4465224409
-4.8555951002
-20.1532417577
-32.1041532986
-19.1003318176
-31.907531985
28.2434866908
38.8129911984
28.195925651
40.90614604
51.7414087259
40.9255469374
27.9805254143
38.9547646223
28.0060657296
-71.3566399297
-62.207454082
-71.3568382291
-59.2301422762
-50.0565977716
-59.2296585812
-71.2611906601
-62.2587687436
-71.2773324952

SCALARS	sig_33	float	1
LOOKUP_TABLE	default
-45.3479023502
1.2704993756
-44.560473593
-14.4783498962
30.5552474612
-14.6056193274
-44.1442573393
-0.0313409566
-44.2073792688
56.7274338257
99.8542271119
56.6558999266
90.4994581019
133.8086796811
90.4891555987
56.5906001667
99.923171604
56.5640251224
-222.1778199699
-179.8453854395
-222.233938117
-185.0300028849
-142.4459673396
-185.0037557379
-222.1846789593
-179.8037326309
-222.164606272

SCALARS vonMises	float	1
LOOKUP_TABLE	default
19.8170605701
28.9045219815
20.6660192331
21.4851852937
36.6102781811
21.7051268072
23.0781314422
29.4849382824
23.2624264188
143.6138070631
128.6312329171
144.0584055955
124.9006006051
105.4104428294
124.8488146562
144.394151112
127.9516028563
144.3489534129
176.0359223551
160.2361037751
176.1656150777
166.6597712323
151.8866211379
166.6347506591
176.2990465614
160.1097540466
176.2634027194
