# vtk DataFile Version 2.0
Results
ASCII
DATASET UNSTRUCTURED_GRID
POINTS         27           float
0.0	0.0	0.0	
50.0	0.0	0.0	
100.0	0.0	0.0	
0.0	40.0	0.0	
50.0	40.0	0.0	
100.0	40.0	0.0	
0.0	80.0	0.0	
50.0	80.0	0.0	
100.0	80.0	0.0	
0.0	0.0	70.0	
50.0	0.0	70.0	
100.0	0.0	70.0	
0.0	40.0	70.0	
50.0	40.0	70.0	
100.0	40.0	70.0	
0.0	80.0	70.0	
50.0	80.0	70.0	
100.0	80.0	70.0	
0.0	0.0	140.0	
50.0	0.0	140.0	
100.0	0.0	140.0	
0.0	40.0	140.0	
50.0	40.0	140.0	
100.0	40.0	140.0	
0.0	80.0	140.0	
50.0	80.0	140.0	
100.0	80.0	140.0	

CELLS	8	72
 8	0	1	4	3	9	10	13	12	
 8	1	2	5	4	10	11	14	13	
 8	4	5	8	7	13	14	17	16	
 8	3	4	7	6	12	13	16	15	
 8	9	10	13	12	18	19	22	21	
 8	10	11	14	13	19	20	23	22	
 8	13	14	17	16	22	23	26	25	
 8	12	13	16	15	21	22	25	24	

CELL_TYPES	8
 12
 12
 12
 12
 12
 12
 12
 12

POINT_DATA	27
VECTORS	u 	float 
0.0	0.0	0.0
0.0047018821	0.0	0.0
0.0094151117	0.0	0.0
0.0	0.0071563489	0.0
0.0046479239	0.0071080972	0.0
0.0092842622	0.0072883084	0.0
0.0	0.0148368269	0.0
0.0045611922	0.0137993929	0.0
0.0089951165	0.0150585563	0.0
0.0161546308	0.0194434993	-0.0148008168
0.0047063069	0.0219305379	-0.0064514509
-0.0067487563	0.0196231975	-0.0148211587
0.0163102477	0.0070812699	-0.0099009893
0.0046417259	0.0071405642	-0.0019130318
-0.0070276599	0.0072428105	-0.0099425738
0.0160677219	-0.0054053856	-0.014753979
0.0045756301	-0.0075251488	-0.0063856887
-0.0068883506	-0.0052467797	-0.0147823387
-0.0510343522	-0.0440010537	-0.0092925131
0.0047272478	-0.0407940883	0.0176728631
0.0604963807	-0.0438444508	-0.0093280506
-0.0503019863	0.0070164453	0.0124815509
0.0046645186	0.0071123559	0.0392482222
0.0596303302	0.0071787754	0.0124570497
-0.0511869754	0.0580916071	-0.0092454644
0.0046019533	0.0549594941	0.0177352003
0.0603803286	0.0582489799	-0.009277145

VECTORS	v 	float 
0.0	0.0	0.0
0.0022723317	0.0	0.0
0.0045428214	0.0	0.0
0.0	0.0018973425	0.0
0.00226653	0.0018996105	0.0
0.0045347596	0.0019017368	0.0
0.0	0.0038083071	0.0
0.0022704109	0.0037877096	0.0
0.0045349989	0.0038155556	0.0
0.0003322346	0.0004317196	-0.0080263827
0.0022700927	0.000484121	-0.0077824901
0.0042083962	0.0004361155	-0.0080268587
0.0003244462	0.0018979711	-0.0078775026
0.0022696443	0.0018988078	-0.0076426536
0.0042141856	0.001901726	-0.0078790362
0.0003302064	0.0033610025	-0.0080250212
0.0022666931	0.0033168861	-0.0077821134
0.0042046367	0.003364662	-0.0080257847
-0.0015802518	-0.0013560432	-0.0153355761
0.0022714359	-0.0012921297	-0.014591345
0.0061232729	-0.0013522724	-0.0153371197
-0.0015822475	0.001896339	-0.0147306839
0.0022695519	0.0018989904	-0.0139901788
0.0061214382	0.0019002891	-0.014731095
-0.0015838603	0.0051503712	-0.0153347677
0.002268519	0.0050883819	-0.0145903647
0.0061205152	0.0051541279	-0.0153361708

VECTORS	a 	float 
0.0	0.0	0.0
0.2734243921	0.0	0.0
0.5467812677	0.0	0.0
0.0	0.2190474714	0.0
0.2733035007	0.2189699515	0.0
0.5466617179	0.2190650291	0.0
0.0	0.4380506191	0.0
0.2734622116	0.4379693121	0.0
0.5468621038	0.4380828295	0.0
0.0019167708	0.0021718094	-0.9402600512
0.2733552707	0.0021877778	-0.9400751505
0.5448144205	0.0021588609	-0.9402682536
0.0018224617	0.2190130341	-0.9401157673
0.2733914553	0.2190271204	-0.9399620066
0.5449404776	0.2190008082	-0.9401199389
0.0019216829	0.4358678161	-0.940266053
0.2733587956	0.4358569577	-0.940100003
0.544813656	0.4358575537	-0.9402734702
-0.0038855066	-0.0033058896	-1.8790275769
0.2733800257	-0.0031869177	-1.8777841607
0.5506416018	-0.0033123003	-1.8790512473
-0.0040340592	0.219037414	-1.87785118
0.2733710872	0.2190269155	-1.8765891843
0.5507817632	0.219028199	-1.8778384508
-0.00387193	0.4413804943	-1.879048613
0.2733887225	0.4412411	-1.8777897399
0.5506472466	0.441367529	-1.8790709219

SCALARS	theta	float 1
LOOKUP_TABLE	default
302.1509514657
301.9488711524
302.1408150876
302.0738212345
301.9088204613
302.0697556729
302.1204937944
301.981731927
302.1248626714
296.7755513905
296.467634779
296.7775827874
296.5216543316
296.2090773596
296.5224474015
296.7829569787
296.4623005542
296.7820924027
312.1207940156
311.6145346646
312.1204966955
311.6689125179
311.1619242737
311.6683356185
312.1180065452
311.6162165131
312.1184774674

SCALARS	sig_11	float	1
LOOKUP_TABLE	default
-47.7831297955
-35.7074524021
-47.352221512
-40.5865008559
-29.728912455
-40.4374770125
-47.2082156085
-37.2294604472
-47.553547993
29.2382030335
45.9854114647
29.2040733591
44.5982936922
61.3350430044
44.5839918416
29.0058785418
45.8792228773
29.0206128186
-75.536852651
-51.7290910387
-75.5377961354
-52.1286638887
-28.2587826629
-52.1163073606
-75.4723393633
-51.7172851962
-75.4872600212

SCALARS	sig_22	float	1
LOOKUP_TABLE	default
-41.3164581209
-30.4967545004
-40.6050115221
-33.4976868446
-24.5200361331
-33.0497324135
-39.6507897689
-32.1235957743
-39.5685850661
22.4558449171
34.6823458481
22.4406338908
38.326420949
50.5985649002
38.3353392126
22.3088835068
34.766540589
22.3410456575
-61.8392924485
-44.0604782864
-61.8499848872
-37.2710419151
-19.4509202068
-37.2649753438
-61.7744718786
-44.0956993468
-61.8003211463

SCALARS	sig_33	float	1
LOOKUP_TABLE	default
-76.4278517531
-54.8422960629
-76.0485320042
-63.4605026831
-43.2771686853
-63.3235405649
-75.4829668663
-55.8652429428
-75.6593283622
36.1798587576
68.3497763931
36.1252489412
64.5008971594
96.5903392397
64.4683286997
36.1055024921
68.4000980882
36.0861225121
-167.551608225
-122.3255758881
-167.5741739204
-123.5819748695
-78.2137310593
-123.5499984706
-167.5110547803
-122.3328811917
-167.5205993968

SCALARS vonMises	float	1
LOOKUP_TABLE	default
69.5441535017
58.0090686803
69.832440541
52.0598377845
32.379673493
52.1350341745
70.3076069901
57.381065778
70.2134522242
110.948112571
89.6549496535
111.1068353886
86.6691249815
57.1203191215
86.699324901
111.263161168
89.2274976153
111.2059138026
111.9400056418
95.0427326562
111.9733529622
100.6709231856
83.9791739171
100.6691857585
112.056773885
94.9804354842
112.0270048167
