# vtk DataFile Version 2.0
Results
ASCII
DATASET UNSTRUCTURED_GRID
POINTS         27           float
0.0	0.0	0.0	
50.0	0.0	0.0	
100.0	0.0	0.0	
0.0	40.0	0.0	
50.0	40.0	0.0	
100.0	40.0	0.0	
0.0	80.0	0.0	
50.0	80.0	0.0	
100.0	80.0	0.0	
0.0	0.0	70.0	
50.0	0.0	70.0	
100.0	0.0	70.0	
0.0	40.0	70.0	
50.0	40.0	70.0	
100.0	40.0	70.0	
0.0	80.0	70.0	
50.0	80.0	70.0	
100.0	80.0	70.0	
0.0	0.0	140.0	
50.0	0.0	140.0	
100.0	0.0	140.0	
0.0	40.0	140.0	
50.0	40.0	140.0	
100.0	40.0	140.0	
0.0	80.0	140.0	
50.0	80.0	140.0	
100.0	80.0	140.0	

CELLS	8	72
 8	0	1	4	3	9	10	13	12	
 8	1	2	5	4	10	11	14	13	
 8	4	5	8	7	13	14	17	16	
 8	3	4	7	6	12	13	16	15	
 8	9	10	13	12	18	19	22	21	
 8	10	11	14	13	19	20	23	22	
 8	13	14	17	16	22	23	26	25	
 8	12	13	16	15	21	22	25	24	

CELL_TYPES	8
 12
 12
 12
 12
 12
 12
 12
 12

POINT_DATA	27
VECTORS	u 	float 
0.0	0.0	0.0
-0.006265629	0.0	0.0
-0.0121621719	0.0	0.0
0.0	-0.0070180634	0.0
-0.006272238	-0.0070445293	0.0
-0.0128090902	-0.0068910712	0.0
0.0	-0.0132887048	0.0
-0.0063897337	-0.0147162197	0.0
-0.0126644241	-0.0131519011	0.0
-0.0295614104	-0.0263336682	-9.08016e-05
-0.0062285788	-0.025292943	0.0139788473
0.0170162394	-0.0261512798	-8.27992e-05
-0.0295271435	-0.0070691938	0.0098111984
-0.0063077479	-0.0070288464	0.0239657266
0.0169767626	-0.0069162916	0.0097966182
-0.0296198697	0.0120212068	-3.73635e-05
-0.0063567065	0.0114031211	0.0140193574
0.0168757592	0.0121751692	-5.35031e-05
-0.0722407512	-0.0614888689	0.0614894773
-0.0062380704	-0.0616892341	0.077024151
0.0598061659	-0.0613450978	0.0614700252
-0.0724392527	-0.0071362223	0.0716927447
-0.0062891882	-0.0070351389	0.0874886532
0.059830525	-0.0069779222	0.0716913361
-0.0723966069	0.0472983492	0.0615108667
-0.0063560841	0.047540745	0.0770851621
0.0596978718	0.0474528988	0.06150192

VECTORS	v 	float 
0.0	0.0	0.0
7.02326e-05	0.0	0.0
0.000136104	0.0	0.0
0.0	6.6584e-05	0.0
6.30015e-05	5.91546e-05	0.0
0.0001295736	6.59364e-05	0.0
0.0	0.0001259923	0.0
7.25924e-05	0.0001239725	0.0
0.0001430821	0.0001249954	0.0
3.96262e-05	4.80807e-05	0.0001119227
6.55202e-05	3.57549e-05	5.81654e-05
9.26668e-05	4.57853e-05	0.0001115594
3.33288e-05	6.30216e-05	7.78153e-05
6.81965e-05	6.38985e-05	2.55224e-05
0.0001018593	6.10386e-05	7.82807e-05
4.04543e-05	7.97893e-05	0.000111131
6.69695e-05	9.03043e-05	5.65744e-05
9.40891e-05	7.80308e-05	0.0001109443
0.0001898781	0.0001640873	4.95375e-05
6.67369e-05	0.0001551232	-3.11349e-05
-5.68915e-05	0.0001622949	4.88824e-05
0.0001736818	6.52669e-05	-3.6658e-06
6.66977e-05	6.3608e-05	-8.21285e-05
-3.97379e-05	6.3236e-05	-2.8588e-06
0.0001921285	-3.41104e-05	4.80516e-05
6.83526e-05	-2.72559e-05	-3.18644e-05
-5.55524e-05	-3.63212e-05	4.74307e-05

VECTORS	a 	float 
0.0	0.0	0.0
0.8940347224	0.0	0.0
1.7851189743	0.0	0.0
0.0	0.7211230094	0.0
0.8858729807	0.7125251229	0.0
1.7742387471	0.720959951	0.0
0.0	1.4376133134	0.0
0.8961792833	1.4285364689	0.0
1.7906603832	1.4372885923	0.0
-0.0048808806	0.0069662164	-3.0714938701
0.8889663867	-0.0021652829	-3.0844794226
1.7837401963	0.0053162843	-3.0719411681
-0.0109079726	0.7167704943	-3.0774133979
0.8916046725	0.7180196945	-3.0880190728
1.7931751577	0.7153108601	-3.0769962016
-0.0042193292	1.4278170546	-3.0721594824
0.8899349183	1.4370911676	-3.0858465638
1.7846183444	1.4265487842	-3.0724730083
-0.0064084128	-0.003096221	-6.158121841
0.8903821081	-0.0153223471	-6.185955426
1.7868815492	-0.0042629883	-6.1589944658
-0.0245128037	0.7188656706	-6.174147427
0.8900206268	0.7175083142	-6.1980513252
1.8049306631	0.7175210502	-6.1732818496
-0.0048953769	1.4405480497	-6.1595313311
0.891451178	1.4506847301	-6.1864117947
1.7877349966	1.4390297373	-6.1603193211

SCALARS	theta	float 1
LOOKUP_TABLE	default
298.344535338
298.3963898671
298.3476486729
298.368129995
298.4148747616
298.3681222141
298.3485381629
298.3916130699
298.3484721755
304.8852631839
304.9222798835
304.8848931596
304.9021018796
304.9400979858
304.9022077143
304.8842743377
304.9227186676
304.8842676289
313.0080471381
313.040782996
313.0079612495
313.0214499064
313.0542387239
313.0213558003
313.0083364102
313.0408224768
313.008329612

SCALARS	sig_11	float	1
LOOKUP_TABLE	default
15.1261933446
26.1338315622
16.0856861215
23.4241681902
33.12750377
22.9683069829
15.5252557426
24.8198130338
15.5997324401
-6.8483739791
-2.1821352396
-6.9167033675
-3.102139798
1.7122094147
-3.0754629217
-7.1182908543
-2.320936096
-7.1323070541
-19.3241371651
-18.8749800378
-19.3041743408
-19.1363641747
-18.6557370769
-19.142885904
-19.2752320414
-18.8586343074
-19.2681440263

SCALARS	sig_22	float	1
LOOKUP_TABLE	default
9.4128369369
19.660661592
10.1678786118
18.4002461049
26.7568405575
18.3956065391
11.2137946962
18.0110299745
11.2674267215
-5.9324087429
-2.7307146455
-5.9882117029
-2.0446460811
1.3488349849
-2.0424499756
-6.0924954353
-2.6366419253
-6.0945873899
-14.127092398
-13.7765189199
-14.1132846772
-14.0207551206
-13.659953145
-14.0148639232
-14.0672204812
-13.8134434518
-14.0683284466

SCALARS	sig_33	float	1
LOOKUP_TABLE	default
25.1461905061
52.1326377615
25.6391068071
44.9941801362
71.0992286431
44.8247455511
25.8997206084
51.3702606638
25.9033959855
-9.0476071841
4.5807887326
-9.1030110764
0.7517532758
14.5805666288
0.7543300057
-9.1378824589
4.6304397335
-9.1507319064
-54.87678187
-52.7609607005
-54.9033580035
-54.4441618522
-52.1674633356
-54.4271472472
-54.8868194243
-52.7427832677
-54.8652128635

SCALARS vonMises	float	1
LOOKUP_TABLE	default
68.6843792673
51.5869988415
68.1883655877
55.8997698593
37.2557139729
56.1505324458
68.0682207592
52.7599641788
68.1332604574
49.2142061713
45.0536869753
49.1264236713
46.9226624737
43.9713958578
46.9631770224
49.1019691049
45.2047217268
49.1107498682
54.6324651505
54.3135534211
54.7327029207
54.6366962399
54.2632901587
54.5994368326
54.8005582603
54.2442297148
54.7924839604
