# vtk DataFile Version 2.0
Results
ASCII
DATASET UNSTRUCTURED_GRID
POINTS         27           float
0.0	0.0	0.0	
50.0	0.0	0.0	
100.0	0.0	0.0	
0.0	40.0	0.0	
50.0	40.0	0.0	
100.0	40.0	0.0	
0.0	80.0	0.0	
50.0	80.0	0.0	
100.0	80.0	0.0	
0.0	0.0	70.0	
50.0	0.0	70.0	
100.0	0.0	70.0	
0.0	40.0	70.0	
50.0	40.0	70.0	
100.0	40.0	70.0	
0.0	80.0	70.0	
50.0	80.0	70.0	
100.0	80.0	70.0	
0.0	0.0	140.0	
50.0	0.0	140.0	
100.0	0.0	140.0	
0.0	40.0	140.0	
50.0	40.0	140.0	
100.0	40.0	140.0	
0.0	80.0	140.0	
50.0	80.0	140.0	
100.0	80.0	140.0	

CELLS	8	72
 8	0	1	4	3	9	10	13	12	
 8	1	2	5	4	10	11	14	13	
 8	4	5	8	7	13	14	17	16	
 8	3	4	7	6	12	13	16	15	
 8	9	10	13	12	18	19	22	21	
 8	10	11	14	13	19	20	23	22	
 8	13	14	17	16	22	23	26	25	
 8	12	13	16	15	21	22	25	24	

CELL_TYPES	8
 12
 12
 12
 12
 12
 12
 12
 12

POINT_DATA	27
VECTORS	u 	float 
0.0	0.0	0.0
-0.0116109199	0.0	0.0
-0.0227956285	0.0	0.0
0.0	-0.0112397203	0.0
-0.0116212314	-0.0112703454	0.0
-0.0235472113	-0.0110865528	0.0
0.0	-0.0215869995	0.0
-0.0117611928	-0.0232882168	0.0
-0.0233956173	-0.0214175836	0.0
-0.0322160151	-0.0280993548	-0.0078884398
-0.0115677236	-0.0268216968	0.0090317532
0.008978114	-0.0278795228	-0.0078801004
-0.0321550862	-0.0113016111	0.003913261
-0.0116624781	-0.0112524333	0.0209208159
0.0089048351	-0.0111172983	0.00389473
-0.0322884756	0.0052886115	-0.0078228891
-0.011722173	0.0045179186	0.009082403
0.0088099937	0.0054738831	-0.007842666
-0.0882137432	-0.0749815629	0.0568062293
-0.0115781035	-0.0751654794	0.0776186547
0.0651061069	-0.0748082742	0.0567820008
-0.0883752825	-0.0113835999	0.0708713506
-0.0116400406	-0.0112618686	0.091983249
0.0650602701	-0.0111930207	0.0708685129
-0.0884011471	0.0523122562	0.0568348402
-0.0117202037	0.0525481031	0.0776939164
0.0649756538	0.0524981756	0.0568229336

VECTORS	v 	float 
0.0	0.0	0.0
6.10789e-05	0.0	0.0
0.0001183208	0.0	0.0
0.0	5.51361e-05	0.0
5.26202e-05	4.61034e-05	0.0
0.0001083833	5.46252e-05	0.0
0.0	0.0001039234	0.0
6.33259e-05	9.71921e-05	0.0
0.0001246976	0.0001031379	0.0
-4.5138e-06	3.0561e-06	0.0001179695
5.57243e-05	-5.2865e-06	7.14584e-05
0.0001171178	1.0891e-06	0.0001175502
-8.2227e-06	5.05613e-05	8.97688e-05
5.85953e-05	5.19199e-05	4.52041e-05
0.000124324	4.88666e-05	9.01947e-05
-3.8123e-06	9.97194e-05	0.0001170458
5.69337e-05	0.0001075666	7.017e-05
0.0001182658	9.82214e-05	0.0001168321
0.0002344239	0.000198798	6.30326e-05
5.72936e-05	0.0001930974	-3.04923e-05
-0.0001202614	0.0001975885	6.22815e-05
0.0002210596	5.28524e-05	-3.3579e-06
5.68819e-05	5.12568e-05	-9.3998e-05
-0.0001068243	5.14216e-05	-2.5462e-06
0.0002360324	-9.35879e-05	6.14565e-05
5.83495e-05	-9.00138e-05	-3.09804e-05
-0.0001194429	-9.51864e-05	6.07944e-05

VECTORS	a 	float 
0.0	0.0	0.0
0.8954360926	0.0	0.0
1.7889785966	0.0	0.0
0.0	0.7196555221	0.0
0.8893011883	0.7130392093	0.0
1.7802043155	0.7195417427	0.0
0.0	1.4361441149	0.0
0.8969705684	1.4284410843	0.0
1.7928638457	1.435916889	0.0
-0.0013204047	0.0048698489	-3.0755389307
0.8916441939	-0.0014932838	-3.083687299
1.7852182087	0.0037201646	-3.0758772563
-0.0053634223	0.7162609758	-3.0788252912
0.8935851075	0.7172451982	-3.0850242388
1.7919086117	0.7152406161	-3.078506452
-0.0008422846	1.4285047526	-3.0760133534
0.8923138321	1.4352297998	-3.0846339632
1.7858193721	1.4276146447	-3.0762565773
-0.0052800254	-0.0028900693	-6.1577418076
0.8927072405	-0.0125203333	-6.1789231141
1.7905151544	-0.0036813907	-6.1583833119
-0.0186467111	0.7177864077	-6.1701414196
0.8924053699	0.7168089165	-6.1882099743
1.8036971252	0.7168753698	-6.1695041953
-0.0042635529	1.4382789298	-6.1587423452
0.8934268526	1.4463628121	-6.1792238947
1.7910877237	1.4372504654	-6.1593209571

SCALARS	theta	float 1
LOOKUP_TABLE	default
297.3512088329
297.400712329
297.3540334209
297.3709066408
297.4151506691
297.37128382
297.3556161835
297.395846609
297.3555922846
304.2617734111
304.3278938946
304.261292222
304.2934886596
304.3605942475
304.2934654847
304.2608507964
304.3285921124
304.2608411786
315.1210083747
315.2179777768
315.1209662629
315.1687932775
315.2658343336
315.1687199627
315.1213852855
315.2179906026
315.1213291192

SCALARS	sig_11	float	1
LOOKUP_TABLE	default
12.8908520446
26.2308281479
14.0250885773
22.85939442
34.6442983037
22.3333360256
13.3676252915
24.6437842391
13.4394321895
-3.8844994434
2.0611155005
-3.9634522379
1.0360146426
7.1552448232
1.0671422521
-4.2085534582
1.8934101469
-4.2240053442
-28.0786039339
-27.0116937303
-28.0560857028
-27.0780974071
-25.9716487274
-27.0854368944
-28.019534936
-26.9912721879
-28.0117304806

SCALARS	sig_22	float	1
LOOKUP_TABLE	default
6.9730896738
19.3967212998
7.8848435037
17.7783492194
27.9317667771
17.7871661459
9.1305573239
17.4127579277
9.1994620745
-3.6752598566
0.4387685831
-3.7389288259
1.4687643759
5.8098639833
1.4725393295
-3.8680867029
0.5497908572
-3.8688521715
-20.9846035396
-20.1639928119
-20.9696454558
-19.9550353995
-19.1201524413
-19.9484162694
-20.9130334703
-20.2079201678
-20.9153005989

SCALARS	sig_33	float	1
LOOKUP_TABLE	default
22.7869547231
55.3658396508
23.3798200485
46.5424229045
78.046926825
46.3455253346
23.6938083408
54.4421130414
23.6915076987
-4.4524405887
13.4917581731
-4.5164086548
8.8264339775
27.002370165
8.8292764562
-4.5607516953
13.5495868752
-4.5763642409
-77.3996586818
-71.8937343916
-77.4323011565
-73.8064267415
-68.1064668094
-73.7861386604
-77.4100895419
-71.8715439181
-77.385533298

SCALARS vonMises	float	1
LOOKUP_TABLE	default
72.1932559246
54.3729957314
71.6174511594
59.6703580386
41.5945082628
59.9600563843
71.5007548827
55.7888170195
71.5845939119
60.1955433392
55.8108644854
60.1226132596
57.6947620345
54.7040702157
57.7261802679
60.1021357548
55.8994166901
60.1122629123
73.154533716
71.6502023336
73.2723954431
72.4003048392
70.874741593
72.3582567904
73.3546592605
71.565739744
73.3436757131
