# vtk DataFile Version 2.0
Results
ASCII
DATASET UNSTRUCTURED_GRID
POINTS         27           float
0.0	0.0	0.0	
50.0	0.0	0.0	
100.0	0.0	0.0	
0.0	40.0	0.0	
50.0	40.0	0.0	
100.0	40.0	0.0	
0.0	80.0	0.0	
50.0	80.0	0.0	
100.0	80.0	0.0	
0.0	0.0	70.0	
50.0	0.0	70.0	
100.0	0.0	70.0	
0.0	40.0	70.0	
50.0	40.0	70.0	
100.0	40.0	70.0	
0.0	80.0	70.0	
50.0	80.0	70.0	
100.0	80.0	70.0	
0.0	0.0	140.0	
50.0	0.0	140.0	
100.0	0.0	140.0	
0.0	40.0	140.0	
50.0	40.0	140.0	
100.0	40.0	140.0	
0.0	80.0	140.0	
50.0	80.0	140.0	
100.0	80.0	140.0	

CELLS	8	72
 8	0	1	4	3	9	10	13	12	
 8	1	2	5	4	10	11	14	13	
 8	4	5	8	7	13	14	17	16	
 8	3	4	7	6	12	13	16	15	
 8	9	10	13	12	18	19	22	21	
 8	10	11	14	13	19	20	23	22	
 8	13	14	17	16	22	23	26	25	
 8	12	13	16	15	21	22	25	24	

CELL_TYPES	8
 12
 12
 12
 12
 12
 12
 12
 12

POINT_DATA	27
VECTORS	u 	float 
0.0	0.0	0.0
-0.0150297645	0.0	0.0
-0.0296080429	0.0	0.0
0.0	-0.0131047668	0.0
-0.0150523307	-0.0131411689	0.0
-0.0304239833	-0.012919369	0.0
0.0	-0.0251655478	0.0
-0.0152128122	-0.0271544271	0.0
-0.030314487	-0.0249479359	0.0
-0.0292366134	-0.023786997	-0.0166676317
-0.0149840247	-0.0221330124	0.0033629907
-0.000842096	-0.0235222471	-0.0166617628
-0.0291416587	-0.0131813197	-0.0029914539
-0.0150953059	-0.0131192072	0.0170979736
-0.0009714884	-0.0129587152	-0.003016685
-0.0293294995	-0.0028176283	-0.0165878344
-0.0151703003	-0.0038692577	0.0034270537
-0.0010425363	-0.00259473	-0.0166131562
-0.1077289284	-0.0913830297	0.0482864477
-0.014992326	-0.0913419945	0.0784945515
0.0777975564	-0.0911733162	0.0482551505
-0.1077633521	-0.013280435	0.0696797696
-0.0150688117	-0.0131346748	0.1001993394
0.0775894795	-0.0130504775	0.0696729987
-0.1079535198	0.0649364153	0.0483254509
-0.0151642199	0.0649625821	0.0785872061
0.0776389461	0.0651607362	0.0483080434

VECTORS	v 	float 
0.0	0.0	0.0
1.5618e-05	0.0	0.0
3.2673e-05	0.0	0.0
0.0	-1.53128e-05	0.0
2.33315e-05	-2.384e-06	0.0
4.52451e-05	-1.47225e-05	0.0
0.0	-2.84702e-05	0.0
1.53253e-05	-6.616e-06	0.0
3.08322e-05	-2.71903e-05	0.0
-0.0001126404	-0.0001417103	0.0001200924
2.05756e-05	-0.0001416708	8.42662e-05
0.0001534071	-0.0001407839	0.0001205635
-0.0001094462	-7.8752e-06	0.0001006345
1.84707e-05	-1.01328e-05	6.08152e-05
0.0001470015	-7.1874e-06	9.97349e-05
-0.0001127945	0.0001253072	0.0001204677
1.99569e-05	0.0001221077	8.48325e-05
0.0001527017	0.0001257011	0.0001208354
0.0002980367	0.0002480295	0.0001580824
1.94132e-05	0.0002576284	1.05689e-05
-0.0002589335	0.0002485028	0.0001584269
0.0003158826	-9.9266e-06	3.33023e-05
2.00442e-05	-8.6889e-06	-0.0001192584
-0.0002762635	-9.3048e-06	3.26216e-05
0.0002971842	-0.000267833	0.0001591447
1.9e-05	-0.0002752102	1.03843e-05
-0.0002591186	-0.0002670362	0.0001594227

VECTORS	a 	float 
0.0	0.0	0.0
-0.897077369	0.0	0.0
-1.7933430323	0.0	0.0
0.0	-0.7181413733	0.0
-0.8930367099	-0.7134808276	0.0
-1.7867634408	-0.7180467595	0.0
0.0	-1.4345192997	0.0
-0.8980020996	-1.4282531309	0.0
-1.7956023174	-1.434334506	0.0
-0.0028577559	-0.0027809712	3.0790057757
-0.8945836969	0.0011419339	3.0830364543
-1.7865944544	-0.0020929404	3.0792358474
-0.0006522811	-0.7156907714	3.0801274665
-0.8958192904	-0.7163888079	3.0825788072
-1.7906831143	-0.7150762651	3.0798857243
-0.0031729825	-1.4290762888	3.0792829717
-0.894985522	-1.4335099415	3.0835774196
-1.7869540383	-1.4285339159	3.079458488
0.0040630085	0.002433682	6.1557175312
-0.895259758	0.0099577076	6.1722425769
-1.7945137296	0.0029223166	6.1561187499
0.0130678269	-0.716661132	6.1659897068
-0.8950558511	-0.7160409491	6.180173314
-1.8032841284	-0.7161099809	6.1655710976
0.0034694532	-1.4356622674	6.1563062261
-0.8956971165	-1.4421505794	6.1723997063
-1.7948696347	-1.4350500422	6.1566696442

SCALARS	theta	float 1
LOOKUP_TABLE	default
297.0256887836
297.0494586994
297.0264800373
297.0266556754
297.0458612611
297.0283508322
297.0303646567
297.0450595858
297.0297417203
302.6678883808
302.7864058574
302.6673241548
302.7362965611
302.8553436508
302.7358310509
302.6672561394
302.7875044623
302.667335108
318.3907801693
318.6294981443
318.3909217611
318.5338099361
318.7728283658
318.5339472499
318.3911790439
318.6293898271
318.3910353324

SCALARS	sig_11	float	1
LOOKUP_TABLE	default
1.1739604985
17.2431762309
2.4458421591
12.8823629275
27.1756460603
12.3368073624
1.7167686515
15.361803491
1.7457374541
6.7772362684
14.9665446799
6.6930645435
13.7447708829
22.1247857307
13.7776538288
6.3958992721
14.7670011112
6.3824957145
-46.2607338034
-43.1609532035
-46.2393429397
-42.9583549089
-39.8089779795
-42.9657817089
-46.1903324841
-43.1349015146
-46.1842087637

SCALARS	sig_22	float	1
LOOKUP_TABLE	default
-3.2705917186
11.7018705269
-2.1825265148
9.4249028978
21.7384650879
9.489040987
-0.7499194356
9.3667274625
-0.649571018
4.7335279935
10.4620938946
4.6685428892
12.0466347853
18.0320122581
12.0543578163
4.5059699358
10.5894809336
4.5113321245
-35.4969792769
-33.20240252
-35.4848961381
-31.9056201492
-29.5910585178
-31.8993977723
-35.4129566695
-33.2525400389
-35.4192702267

SCALARS	sig_33	float	1
LOOKUP_TABLE	default
7.1635174394
46.0351695488
7.8567861107
34.8579771811
72.4371375255
34.6519987919
8.2256975827
44.9386105904
8.2075097674
11.6567745783
37.2030489112
11.5875752782
31.2818228809
57.0738514984
31.2833341099
11.5300811221
37.2679673934
11.5117275941
-121.8090060754
-107.1125484345
-121.8511152045
-109.4510318075
-94.5263272852
-109.4275345356
-121.8176533741
-107.084708234
-121.7933706116

SCALARS vonMises	float	1
LOOKUP_TABLE	default
58.3404771955
44.8489452514
57.7462292819
51.1390567725
41.3887916967
51.439927132
57.7448777112
46.5588278844
57.8687668727
77.5504781742
74.4084669272
77.6414447204
74.968122824
70.9582642837
74.9548165711
77.6907888258
74.2346687402
77.7000792286
106.5449914272
101.4895359916
106.6763177329
103.5200049362
98.6418413577
103.4790109081
106.77620564
101.3871939006
106.7593802058
