# vtk DataFile Version 2.0
Results
ASCII
DATASET UNSTRUCTURED_GRID
POINTS         27           float
0.0	0.0	0.0	
50.0	0.0	0.0	
100.0	0.0	0.0	
0.0	40.0	0.0	
50.0	40.0	0.0	
100.0	40.0	0.0	
0.0	80.0	0.0	
50.0	80.0	0.0	
100.0	80.0	0.0	
0.0	0.0	70.0	
50.0	0.0	70.0	
100.0	0.0	70.0	
0.0	40.0	70.0	
50.0	40.0	70.0	
100.0	40.0	70.0	
0.0	80.0	70.0	
50.0	80.0	70.0	
100.0	80.0	70.0	
0.0	0.0	140.0	
50.0	0.0	140.0	
100.0	0.0	140.0	
0.0	40.0	140.0	
50.0	40.0	140.0	
100.0	40.0	140.0	
0.0	80.0	140.0	
50.0	80.0	140.0	
100.0	80.0	140.0	

CELLS	8	72
 8	0	1	4	3	9	10	13	12	
 8	1	2	5	4	10	11	14	13	
 8	4	5	8	7	13	14	17	16	
 8	3	4	7	6	12	13	16	15	
 8	9	10	13	12	18	19	22	21	
 8	10	11	14	13	19	20	23	22	
 8	13	14	17	16	22	23	26	25	
 8	12	13	16	15	21	22	25	24	

CELL_TYPES	8
 12
 12
 12
 12
 12
 12
 12
 12

POINT_DATA	27
VECTORS	u 	float 
0.0	0.0	0.0
0.0029108781	0.0	0.0
0.0059098881	0.0	0.0
0.0	0.0079617952	0.0
0.0028118449	0.0079082818	0.0
0.0055671814	0.0082204927	0.0
0.0	0.0170208929	0.0
0.0026481725	0.0149267513	0.0
0.0050878933	0.0174307204	0.0
0.0214088183	0.0284519842	-0.0276570654
0.0029255383	0.0327451978	-0.008917344
-0.0155877331	0.0288009285	-0.02768787
0.021486781	0.0078442149	-0.0163670454
0.0027988531	0.0079487342	0.0018243687
-0.0158820914	0.0081524194	-0.0164389377
0.0212463129	-0.0130217189	-0.0275595861
0.002673039	-0.0165909486	-0.0088067652
-0.0158554782	-0.0127175857	-0.0276111002
-0.1127454689	-0.0966822826	-0.0026390363
0.002957762	-0.0917397665	0.0515148528
0.11868292	-0.0963848537	-0.0027035591
-0.1118922409	0.0077161179	0.0404829973
0.0028388309	0.0079054321	0.094395491
0.1175654548	0.0080288869	0.0404421016
-0.1130391485	0.112236035	-0.0025594117
0.0027185606	0.1074276698	0.0516362707
0.1184591885	0.1125393545	-0.0026141385

VECTORS	v 	float 
0.0	0.0	0.0
0.0021408483	0.0	0.0
0.004283893	0.0	0.0
0.0	0.0017449131	0.0
0.0021359334	0.0017389098	0.0
0.0042706081	0.0017473649	0.0
0.0	0.0035007712	0.0
0.0021390803	0.0034686154	0.0
0.0042771348	0.0035040907	0.0
-2.84049e-05	5.30451e-05	-0.0079863419
0.0021386381	8.45296e-05	-0.0077468534
0.0043051483	5.59604e-05	-0.0079867113
-2.7835e-05	0.0017408405	-0.0078328869
0.0021384781	0.0017426801	-0.0075946091
0.0043049075	0.0017433399	-0.0078331061
-2.96392e-05	0.0034262015	-0.0079855807
0.0021364767	0.0034032707	-0.0077463785
0.0043028205	0.0034287777	-0.0079862153
-0.0013841052	-0.0011758184	-0.0151475545
0.0021393763	-0.0011556182	-0.0146057301
0.0056632162	-0.0011734931	-0.0151484757
-0.0013854054	0.0017406547	-0.014730561
0.0021380647	0.0017419045	-0.0141862629
0.0056614648	0.0017431444	-0.0147303972
-0.0013863585	0.004658433	-0.0151476045
0.0021375475	0.0046381758	-0.0146044628
0.0056614267	0.0046607702	-0.0151483356

VECTORS	a 	float 
0.0	0.0	0.0
0.6499099736	0.0	0.0
1.2995088296	0.0	0.0
0.0	0.5204239908	0.0
0.6489086516	0.5194024085	0.0
1.2980795954	0.5204242308	0.0
0.0	1.0403982315	0.0
0.6501420889	1.0391372638	0.0
1.3000858702	1.0403952329	0.0
0.0031989922	0.0035207686	-2.23401752
0.6492980148	0.0029293743	-2.2347055079
1.2954955189	0.0033578954	-2.2340648135
0.0029019247	0.5199004009	-2.2340483244
0.6496022771	0.5200544605	-2.2345832348
1.2961999502	0.5197565875	-2.234008235
0.0032655599	1.0364024412	-2.234067714
0.6493883353	1.0370725568	-2.2348664279
1.2955724598	1.0362807884	-2.2341097267
-0.0052220472	-0.00422984	-4.4648236282
0.6494694807	-0.0050697232	-4.4659520964
1.3041344593	-0.0043387791	-4.4649277927
-0.0066579397	0.5201298311	-4.4645921726
0.6494160472	0.5199918319	-4.4653772276
1.3055287329	0.5200014661	-4.4644936949
-0.0050684151	1.0444720979	-4.4649711654
0.6495756904	1.0450786857	-4.4659916758
1.3042146214	1.0443224415	-4.4650723484

SCALARS	theta	float 1
LOOKUP_TABLE	default
302.7675126677
302.485822571
302.7521999257
302.6521444338
302.4033744088
302.6488665518
302.740407553
302.5176701578
302.7433067872
294.623919507
294.2905194663
294.6260978561
294.416410923
294.0783762507
294.4166565186
294.6302990198
294.2872567503
294.6299144646
324.5250848632
324.0484721115
324.5251076093
324.1957216685
323.7190483704
324.1955626609
324.52341408
324.048747872
324.5234783913

SCALARS	sig_11	float	1
LOOKUP_TABLE	default
-80.139803489
-57.8403721942
-79.2344647549
-66.7676441721
-46.4587116883
-66.6366302826
-79.3476095006
-60.4571133541
-79.8749807264
55.8368155305
82.9535618222
55.775816772
79.2476172357
106.3919380841
79.2343654247
55.4025644392
82.7246976309
55.4218874197
-133.5156098364
-97.7157802751
-133.5169093257
-100.1498707204
-64.2725399114
-100.1369812311
-133.4173936081
-97.6785395691
-133.4361093103

SCALARS	sig_22	float	1
LOOKUP_TABLE	default
-69.959580043
-49.8441970491
-68.6079478772
-55.4185829087
-38.5607254634
-54.7044688551
-66.9449700422
-52.7777341303
-66.7479458146
43.4527410557
62.7800798365
43.4261411178
67.6142687792
87.0772273684
67.6358509909
43.1861296715
62.9270291411
43.238332256
-107.6992655192
-81.615745633
-107.7161108192
-72.6175954861
-46.4996535849
-72.6134203229
-107.5924676547
-81.6700818764
-107.6302545786

SCALARS	sig_33	float	1
LOOKUP_TABLE	default
-118.8095118189
-75.0717773603
-118.0852885842
-92.2115563422
-50.6793272976
-92.0575726989
-117.3080140046
-76.7256297174
-117.5494910157
78.1701266468
136.1313662438
78.0823101435
126.8401604345
184.7121180597
126.7945744439
78.0411653265
136.2091415
78.0050896502
-301.1905004999
-224.8929385883
-301.2415183257
-229.7713809331
-153.2703903708
-229.7248574977
-301.1541511899
-224.8751737119
-301.1580756463

SCALARS vonMises	float	1
LOOKUP_TABLE	default
106.1404260438
90.5559693675
106.7617023538
77.9933033736
51.2323203485
78.0964942176
107.7577608519
89.3931105728
107.5931856762
204.6784302285
169.0202076103
205.0167779007
163.3495822082
115.7511845713
163.383296756
205.3289470006
168.1927656684
205.223241038
212.1249142373
183.5456016745
212.2068515958
193.959011789
166.5049715444
193.9552965564
212.3635354282
183.4211754605
212.3084239775
