# vtk DataFile Version 2.0
Results
ASCII
DATASET UNSTRUCTURED_GRID
POINTS         27           float
0.0	0.0	0.0	
50.0	0.0	0.0	
100.0	0.0	0.0	
0.0	40.0	0.0	
50.0	40.0	0.0	
100.0	40.0	0.0	
0.0	80.0	0.0	
50.0	80.0	0.0	
100.0	80.0	0.0	
0.0	0.0	70.0	
50.0	0.0	70.0	
100.0	0.0	70.0	
0.0	40.0	70.0	
50.0	40.0	70.0	
100.0	40.0	70.0	
0.0	80.0	70.0	
50.0	80.0	70.0	
100.0	80.0	70.0	
0.0	0.0	140.0	
50.0	0.0	140.0	
100.0	0.0	140.0	
0.0	40.0	140.0	
50.0	40.0	140.0	
100.0	40.0	140.0	
0.0	80.0	140.0	
50.0	80.0	140.0	
100.0	80.0	140.0	

CELLS	8	72
 8	0	1	4	3	9	10	13	12	
 8	1	2	5	4	10	11	14	13	
 8	4	5	8	7	13	14	17	16	
 8	3	4	7	6	12	13	16	15	
 8	9	10	13	12	18	19	22	21	
 8	10	11	14	13	19	20	23	22	
 8	13	14	17	16	22	23	26	25	
 8	12	13	16	15	21	22	25	24	

CELL_TYPES	8
 12
 12
 12
 12
 12
 12
 12
 12

POINT_DATA	27
VECTORS	u 	float 
0.0	0.0	0.0
-0.0137605711	0.0	0.0
-0.0271199333	0.0	0.0
0.0	-0.0102664901	0.0
-0.0138037678	-0.010295635	0.0
-0.0278837004	-0.0100458459	0.0
0.0	-0.0193724432	0.0
-0.0139764519	-0.0215577413	0.0
-0.0279127328	-0.019090168	0.0
-0.0183472056	-0.0115268158	-0.0231252303
-0.0137173743	-0.0092488058	-0.0009058316
-0.0091894669	-0.011218016	-0.0231265905
-0.0183015864	-0.0103508112	-0.0084459923
-0.0138421778	-0.0102751757	0.0137348442
-0.0093174422	-0.0100893045	-0.0084828069
-0.0184653582	-0.0094430332	-0.0230319497
-0.013935897	-0.011037897	-0.0008287613
-0.0094220031	-0.0091823612	-0.0230652492
-0.12418902	-0.1053372295	0.0374306271
-0.0137183238	-0.1045047777	0.0793745955
0.0968035077	-0.1050898202	0.0373893253
-0.1241170208	-0.0104662905	0.0685113997
-0.0138112679	-0.0102967938	0.110708405
0.0964637961	-0.010196654	0.0684965651
-0.1244488745	0.0845313362	0.0374812038
-0.0139205861	0.0837877324	0.0794831528
0.09661514	0.0847942106	0.03745439

VECTORS	v 	float 
0.0	0.0	0.0
-6.91299e-05	0.0	0.0
-0.0001351377	0.0	0.0
0.0	-0.000110863	0.0
-7.66947e-05	-0.0001275392	0.0
-0.0001557679	-0.0001134393	0.0
0.0	-0.0002274398	0.0
-6.83878e-05	-0.000250204	0.0
-0.0001317775	-0.000232401	0.0
-0.0003262892	-0.0003714795	0.0001267442
-7.45301e-05	-0.0003994675	8.12525e-05
0.0001765481	-0.0003739873	0.0001265271
-0.0003254946	-0.0001202748	0.0001110945
-7.19519e-05	-0.0001180185	7.67439e-05
0.0001820888	-0.0001223197	0.0001129397
-0.0003251254	0.000132325	0.0001259641
-7.26216e-05	0.0001618597	8.07337e-05
0.0001786329	0.0001306052	0.0001258652
0.0003545856	0.0003078535	0.0002979552
-7.3787e-05	0.0002505383	-4.89422e-05
-0.0005021659	0.0003058925	0.0002983912
0.0003262889	-0.00011751	1.49976e-05
-7.38118e-05	-0.0001198083	-0.0003220929
-0.0004738529	-0.0001196345	1.59971e-05
0.0003566284	-0.0005433957	0.0002968517
-7.2257e-05	-0.0004894421	-4.92032e-05
-0.0005008235	-0.0005455646	0.000297313

VECTORS	a 	float 
0.0	0.0	0.0
0.8963355645	0.0	0.0
1.7919393736	0.0	0.0
0.0	0.7173749159	0.0
0.8936070045	0.7149165471	0.0
1.7878171027	0.7174500306	0.0
0.0	1.4335918096	0.0
0.8971166859	1.4306281122	0.0
1.7936850668	1.433732586	0.0
0.0026313178	0.0029585766	-3.0796428108
0.8946989359	0.0004132511	-3.0826362172
1.7870187283	0.0025193566	-3.0797976232
0.0009746579	0.7161626076	-3.0803171721
0.8955409134	0.7165165995	-3.0826818037
1.7898608292	0.7157499932	-3.0802473508
0.0028533484	1.4296827139	-3.0798244747
0.8949303237	1.4323743687	-3.083069918
1.7871969787	1.4293008119	-3.0799477033
-0.0040653974	-0.0028964413	-6.1573193181
0.8951849046	-0.0068655318	-6.1671100062
1.7943968953	-0.0032141656	-6.157672992
-0.0093596294	0.7167586964	-6.1632177616
0.8950497837	0.7163970837	-6.1716969652
1.7995153959	0.716402735	-6.1629313931
-0.0036809156	1.4363600069	-6.1577266233
0.8954813784	1.4397117525	-6.1672524663
1.7946430144	1.4359617901	-6.1580527743

SCALARS	theta	float 1
LOOKUP_TABLE	default
297.9442459498
297.9135696773
297.9407784904
297.9140530021
297.8786730766
297.9175293864
297.9502750229
297.9090898926
297.9478844488
300.2266642353
300.3622158357
300.2262218616
300.3428275108
300.4782136973
300.3417509441
300.2260056225
300.3641340372
300.2264324397
322.1422163306
322.4896147626
322.1426544176
322.4223636494
322.7704447268
322.4228772866
322.1428202957
322.4890086295
322.1424767221

SCALARS	sig_11	float	1
LOOKUP_TABLE	default
-21.1184192056
-2.4963696796
-19.8261227065
-8.240191904
8.532581138
-8.7006656736
-20.5732052282
-4.610305173
-20.6421967999
24.6690162276
36.6507964763
24.5891941355
34.5692595533
46.7384345408
34.5976890378
24.2462330494
36.4241371773
24.2388191839
-72.9188478676
-64.7824492774
-72.9032435413
-65.309667526
-57.115458326
-65.3162642496
-72.8407951144
-64.7490793082
-72.8383653248

SCALARS	sig_22	float	1
LOOKUP_TABLE	default
-21.9402754019
-4.666909455
-20.6978566966
-7.9755672362
6.3718227144
-7.7935627366
-19.1719184435
-7.2649054799
-19.0134834404
19.0466690431
27.3989940308
18.9912982081
29.3426386643
37.9626156334
29.3574090717
18.7945711951
27.5368289914
18.8115330887
-56.8015337206
-51.0354314881
-56.7964925766
-48.6577378641
-42.8687341244
-48.6548470095
-56.7090484775
-51.0876838175
-56.7209880375

SCALARS	sig_33	float	1
LOOKUP_TABLE	default
-23.5392345807
20.4460820273
-22.7791961977
6.4977960247
49.01129923
6.3237628778
-22.3853170316
19.221985751
-22.4241937981
38.8987687842
74.8892291836
38.8291108817
66.9885385673
103.198984632
66.9847225329
38.7625587537
74.9582218862
38.7402497177
-183.0082991918
-152.4314636041
-183.0596191884
-156.240137014
-125.417045337
-156.2157400377
-183.0148990861
-152.3961774325
-182.9928110448

SCALARS vonMises	float	1
LOOKUP_TABLE	default
26.1837373263
25.524022938
25.8498629337
29.1832361642
36.8075922224
29.465063208
26.7447267107
27.4266412413
26.9909881059
113.6843454581
105.4746803327
114.0606527113
103.3816131498
91.8060495066
103.3264340405
114.3011886451
104.9734246625
114.2816830481
149.6249324658
138.3514548272
149.7580804098
142.8744301726
132.2656491048
142.8421115279
149.8768966354
138.2337311573
149.8496797296
