# vtk DataFile Version 2.0
Results
ASCII
DATASET UNSTRUCTURED_GRID
POINTS         27           float
0.0	0.0	0.0	
50.0	0.0	0.0	
100.0	0.0	0.0	
0.0	40.0	0.0	
50.0	40.0	0.0	
100.0	40.0	0.0	
0.0	80.0	0.0	
50.0	80.0	0.0	
100.0	80.0	0.0	
0.0	0.0	70.0	
50.0	0.0	70.0	
100.0	0.0	70.0	
0.0	40.0	70.0	
50.0	40.0	70.0	
100.0	40.0	70.0	
0.0	80.0	70.0	
50.0	80.0	70.0	
100.0	80.0	70.0	
0.0	0.0	140.0	
50.0	0.0	140.0	
100.0	0.0	140.0	
0.0	40.0	140.0	
50.0	40.0	140.0	
100.0	40.0	140.0	
0.0	80.0	140.0	
50.0	80.0	140.0	
100.0	80.0	140.0	

CELLS	8	72
 8	0	1	4	3	9	10	13	12	
 8	1	2	5	4	10	11	14	13	
 8	4	5	8	7	13	14	17	16	
 8	3	4	7	6	12	13	16	15	
 8	9	10	13	12	18	19	22	21	
 8	10	11	14	13	19	20	23	22	
 8	13	14	17	16	22	23	26	25	
 8	12	13	16	15	21	22	25	24	

CELL_TYPES	8
 12
 12
 12
 12
 12
 12
 12
 12

POINT_DATA	27
VECTORS	u 	float 
0.0	0.0	0.0
0.0002102041	0.0	0.0
0.0007164721	0.0	0.0
0.0	-0.0015713167	0.0
0.0002056125	-0.0015916089	0.0
0.0001989428	-0.0014709019	0.0
0.0	-0.0025512905	0.0
0.0001126389	-0.0036801876	0.0
0.0003187828	-0.0024444729	0.0
-0.0244728865	-0.0220025376	0.0078528967
0.0002398004	-0.0211891426	0.018962379
0.0248822049	-0.0218587174	0.0078597036
-0.0244549493	-0.0016107992	0.0157076159
0.0001771663	-0.0015793662	0.0268887129
0.0248616051	-0.0014901871	0.0156963478
-0.024518201	0.0186430222	0.0078943716
0.0001387318	0.0181629066	0.0189930872
0.024770738	0.018764583	0.0078817412
-0.0566200697	-0.0482288345	0.0649553953
0.000231899	-0.0484036216	0.0765022304
0.0571170564	-0.0481156312	0.0649403866
-0.056805181	-0.0016628354	0.0724091474
0.000191766	-0.0015830861	0.0841664908
0.0571644088	-0.001538061	0.0724084366
-0.0567427683	0.0449679156	0.0649707796
0.0001389594	0.0451756186	0.0765490304
0.0570316684	0.0450898449	0.0649641243

VECTORS	v 	float 
0.0	0.0	0.0
8.24997e-05	0.0	0.0
0.0001681056	0.0	0.0
0.0	5.50039e-05	0.0
9.07988e-05	6.32322e-05	0.0
0.0001789009	5.52236e-05	0.0
0.0	0.0001146771	0.0
8.04739e-05	0.0001229657	0.0
0.0001626413	0.0001152121	0.0
8.29868e-05	4.77968e-05	4.82489e-05
8.7699e-05	5.53899e-05	4.55726e-05
9.14709e-05	4.94988e-05	4.84893e-05
8.79619e-05	5.91075e-05	4.30938e-05
8.50604e-05	5.80041e-05	3.9094e-05
8.31478e-05	6.06194e-05	4.27062e-05
8.23909e-05	6.92386e-05	4.86272e-05
8.66749e-05	6.17457e-05	4.73028e-05
9.0445e-05	7.05283e-05	4.88746e-05
0.000176643	0.0001346828	2.50618e-05
8.63811e-05	0.0001434152	2.12645e-05
-3.5659e-06	0.0001359947	2.57647e-05
0.0001923721	5.70351e-05	1.78383e-05
8.66543e-05	5.83205e-05	1.10865e-05
-1.94907e-05	5.85268e-05	1.7006e-05
0.000174895	-2.04207e-05	2.64088e-05
8.51324e-05	-2.70835e-05	2.18981e-05
-4.5582e-06	-1.87292e-05	2.71147e-05

VECTORS	a 	float 
0.0	0.0	0.0
-0.8931214844	0.0	0.0
-1.7817311122	0.0	0.0
0.0	-0.7229019864	0.0
-0.8822561134	-0.7118239067	0.0
-1.768319454	-0.7226758519	0.0
0.0	-1.4390955951	0.0
-0.8961015347	-1.4287383277	0.0
-1.7895839653	-1.4386349278	0.0
0.0092840863	-0.0094412509	3.0669241378
-0.8863580735	0.0037043751	3.0867695929
-1.7833842891	-0.0071074264	3.0675042495
0.0177940401	-0.7173821525	3.076416156
-0.8899401057	-0.7189731787	3.0933886312
-1.7962711779	-0.7153307501	3.0758777205
0.0083863502	-1.4271239617	3.0678499428
-0.8877280758	-1.4400206667	3.0887401046
-1.7846258228	-1.4253583255	3.0682463957
0.0048000605	0.002483275	6.157418605
-0.8882648114	0.0180798712	6.1952452624
-1.7808687111	0.0041123982	6.1585852175
0.0287295678	-0.720238816	6.1783665479
-0.8878001182	-0.718380387	6.2113493018
-1.8049142824	-0.7183462602	6.1772080631
0.0026373377	-1.4425397987	6.1593889866
-0.8897639454	-1.455369463	6.1959326367
-1.782051352	-1.4403889549	6.1604475674

SCALARS	theta	float 1
LOOKUP_TABLE	default
299.670900961
299.7167748636
299.6737289381
299.6929186309
299.7343265254
299.6927732028
299.6742624346
299.712516254
299.6741534892
305.1591181221
305.1806018081
305.1588375764
305.1687811102
305.1911364132
305.1689221317
305.158180148
305.1808673779
305.1581720017
311.2101558528
311.21589577
311.2100878671
311.2104405408
311.2162184392
311.2103695935
311.210363121
311.2159082256
311.2103978064

SCALARS	sig_11	float	1
LOOKUP_TABLE	default
13.7339899039
22.4026636359
14.4975609188
20.2964220321
27.9312179106
19.9301637464
14.0511618026
21.3668894418
14.1151271704
-6.8771779404
-3.2899844234
-6.9323233449
-4.0516023514
-0.3456368483
-4.0303093191
-7.090707665
-3.3990187972
-7.1021092644
-13.6685048518
-13.4775459991
-13.6523890593
-13.7795603724
-13.5645003588
-13.784986785
-13.6297634678
-13.4649411228
-13.6241159741

SCALARS	sig_22	float	1
LOOKUP_TABLE	default
8.8981559037
16.9692087868
9.4941617734
15.999105199
22.5748535918
15.9917734189
10.3246079231
15.6662443178
10.3664457535
-5.8520387116
-3.4013481927
-5.8972956698
-2.9372896514
-0.3336137289
-2.9358456772
-5.9783303623
-3.3258152594
-5.9803734869
-9.8338551506
-9.6822433055
-9.8225064648
-10.0568900981
-9.8981169386
-10.0521975551
-9.7861393569
-9.7114883091
-9.7868552588

SCALARS	sig_33	float	1
LOOKUP_TABLE	default
22.3501831042
43.6450741592
22.7393778102
38.0744496242
58.6789656156
37.9386836824
22.9460026109
43.0454209971
22.9515210591
-9.3174623322
0.9451392204
-9.3623842908
-2.0726344592
8.3520812708
-2.0705569865
-9.3889461377
0.9855631346
-9.398912791
-39.5406233899
-38.8483277025
-39.5615697235
-40.2310500932
-39.4122725897
-40.2176777557
-39.5488611527
-38.8340994644
-39.5314830582

SCALARS vonMises	float	1
LOOKUP_TABLE	default
57.7533083439
43.3521749551
57.3560225314
46.708999946
30.5395132308
46.9100809759
57.2537309685
44.2787981726
57.30407841
38.6586430266
35.2830863804
38.5810188015
36.8118443358
34.2471194248
36.8489776475
38.5593147306
35.4299262645
38.5665381636
40.6446921761
40.7990126123
40.7245037374
40.9185646382
41.0243864698
40.8884353569
40.7777202078
40.7451140168
40.7715724123
