# vtk DataFile Version 2.0
Results
ASCII
DATASET UNSTRUCTURED_GRID
POINTS         27           float
0.0	0.0	0.0	
50.0	0.0	0.0	
100.0	0.0	0.0	
0.0	40.0	0.0	
50.0	40.0	0.0	
100.0	40.0	0.0	
0.0	80.0	0.0	
50.0	80.0	0.0	
100.0	80.0	0.0	
0.0	0.0	70.0	
50.0	0.0	70.0	
100.0	0.0	70.0	
0.0	40.0	70.0	
50.0	40.0	70.0	
100.0	40.0	70.0	
0.0	80.0	70.0	
50.0	80.0	70.0	
100.0	80.0	70.0	
0.0	0.0	140.0	
50.0	0.0	140.0	
100.0	0.0	140.0	
0.0	40.0	140.0	
50.0	40.0	140.0	
100.0	40.0	140.0	
0.0	80.0	140.0	
50.0	80.0	140.0	
100.0	80.0	140.0	

CELLS	8	72
 8	0	1	4	3	9	10	13	12	
 8	1	2	5	4	10	11	14	13	
 8	4	5	8	7	13	14	17	16	
 8	3	4	7	6	12	13	16	15	
 8	9	10	13	12	18	19	22	21	
 8	10	11	14	13	19	20	23	22	
 8	13	14	17	16	22	23	26	25	
 8	12	13	16	15	21	22	25	24	

CELL_TYPES	8
 12
 12
 12
 12
 12
 12
 12
 12

POINT_DATA	27
VECTORS	u 	float 
0.0	0.0	0.0
0.0021456809	0.0	0.0
0.0045657307	0.0	0.0
0.0	8.48339e-05	0.0
0.0021428387	6.70045e-05	0.0
0.0040889622	0.000177638	0.0
0.0	0.0007163441	0.0
0.0020554461	-0.0003255595	0.0
0.0041977678	0.0008148348	0.0
-0.0227933273	-0.0205224919	0.0101007937
0.0021738541	-0.01977249	0.0203674254
0.0270759526	-0.0203895568	0.0101071628
-0.0227791009	4.8949e-05	0.0173643794
0.0021156487	7.78054e-05	0.0276981187
0.0270589057	0.0001604637	0.0173540406
-0.0228350864	0.020492839	0.0101389658
0.0020804368	0.0200505139	0.020395599
0.0269727947	0.020605253	0.0101273151
-0.0522631642	-0.0445232584	0.0658036265
0.0021662824	-0.0446874846	0.0763626935
0.0566264583	-0.0444186387	0.0657898625
-0.0524388984	9.352e-07	0.0725972569
0.0021293081	7.46919e-05	0.08335163
0.0566750197	0.0001162745	0.07259667
-0.052376531	0.0445849649	0.0658175464
0.0020803699	0.0447797155	0.0764056643
0.056547482	0.0446977083	0.0658115123

VECTORS	v 	float 
0.0	0.0	0.0
8.00424e-05	0.0	0.0
0.0001629333	0.0	0.0
0.0	5.29012e-05	0.0
8.56647e-05	5.93662e-05	0.0
0.0001688365	5.32367e-05	0.0
0.0	0.000110357	0.0
7.8222e-05	0.0001152682	0.0
0.0001578437	0.0001111113	0.0
8.08196e-05	4.64129e-05	3.98039e-05
8.36818e-05	5.50908e-05	4.18335e-05
8.56821e-05	4.80959e-05	4.00339e-05
8.73627e-05	5.60379e-05	3.91724e-05
8.16355e-05	5.52533e-05	3.96367e-05
7.68345e-05	5.75144e-05	3.8718e-05
8.02414e-05	6.45202e-05	4.01397e-05
8.26442e-05	5.65327e-05	4.34892e-05
8.46213e-05	6.5762e-05	4.03744e-05
0.0001646258	0.0001248361	1.80232e-05
8.2795e-05	0.0001335989	2.14129e-05
1.2753e-06	0.0001261527	1.86369e-05
0.0001804655	5.42283e-05	1.75796e-05
8.28478e-05	5.54013e-05	1.78638e-05
-1.51984e-05	5.57246e-05	1.67694e-05
0.0001628737	-1.61942e-05	1.93003e-05
8.15481e-05	-2.31101e-05	2.20161e-05
2.852e-07	-1.4501e-05	1.992e-05

VECTORS	a 	float 
0.0	0.0	0.0
-0.8915583094	0.0	0.0
-1.7782086406	0.0	0.0
0.0	-0.7232607438	0.0
-0.8797153795	-0.711052719	0.0
-1.7635732602	-0.7229736872	0.0
0.0	-1.4391556139	0.0
-0.8947707471	-1.4277078019	0.0
-1.7867390778	-1.4385843403	0.0
0.0120752555	-0.0096578052	3.0643804839
-0.8841757862	0.004452534	3.0864474024
-1.7819300133	-0.0071050601	3.0650047133
0.0211799673	-0.7171605111	3.0751969604
-0.8880797501	-0.7189164297	3.0941742524
-1.7958144341	-0.7149204892	3.0745929292
0.0111067076	-1.4266321162	3.0653795723
-0.8856813568	-1.4404923816	3.0885940165
-1.7833094415	-1.4247052515	3.0658083356
0.0070541219	0.0030666671	6.1575693657
-0.8862480416	0.0197222224	6.1981131155
-1.7790445057	0.0048463833	6.1588206981
0.032947317	-0.7202854789	6.1800154908
-0.8857421341	-0.7182511764	6.2153466511
-1.8050726769	-0.7182181203	6.1787510996
0.004690101	-1.4431784542	6.1597165834
-0.8878821671	-1.4568055018	6.1988576586
-1.7803304694	-1.4408299193	6.1608541494

SCALARS	theta	float 1
LOOKUP_TABLE	default
300.077882904
300.1210721145
300.0805417608
300.0987689266
300.1377871645
300.0986333452
300.0809990049
300.1170665562
300.0808716546
305.2002837544
305.2189595458
305.2000329841
305.2086930589
305.2281747158
305.2088281492
305.1993897789
305.2191779983
305.1993860018
310.7364794236
310.7386772163
310.7364156692
310.735181164
310.7374205118
310.7351232918
310.7366594906
310.7386850329
310.7366978819

SCALARS	sig_11	float	1
LOOKUP_TABLE	default
12.9735134919
20.9775644886
13.6791824046
19.0356243204
26.084971904
18.6969398613
13.2668275513
20.0218779761
13.3262172323
-6.5842090867
-3.2849748753
-6.6353148977
-3.9948705968
-0.5857626628
-3.9752242917
-6.7814628919
-3.3855758859
-6.7919953913
-12.3811691303
-12.2312601686
-12.3662908029
-12.5254644477
-12.3534121952
-12.5305062707
-12.3453780749
-12.2196235404
-12.3402220468

SCALARS	sig_22	float	1
LOOKUP_TABLE	default
8.4543395691
15.905706079
9.0047089435
15.0141720395
21.0847921333
15.0074722031
9.7723532368
14.7026937238
9.8108599094
-5.5897643319
-3.3377967494
-5.6317418764
-2.9212715568
-0.5278556614
-2.920002621
-5.7063368357
-3.2677911278
-5.7082444812
-8.8799163605
-8.7599334339
-8.8694403665
-9.1354113813
-9.0089694109
-9.1310422557
-8.8357560591
-8.7869081757
-8.8364724742

SCALARS	sig_33	float	1
LOOKUP_TABLE	default
21.0436707541
40.7202480049
21.4027960779
35.5829579726
54.6235571532
35.4576456118
21.5939442791
40.1672586416
21.5992089695
-8.950194667
0.4574450888
-8.9919093372
-2.3308112077
7.2271501119
-2.3289213327
-9.0162373757
0.4949899649
-9.0254086746
-35.9546867676
-35.4667820821
-35.9741514365
-36.7535824218
-36.1488851081
-36.7411683061
-35.9623712337
-35.4535717877
-35.9463765741

SCALARS vonMises	float	1
LOOKUP_TABLE	default
53.9201451276
40.4726233572
53.5513125893
43.5669851616
28.4021425647
43.7554157453
53.4564045879
41.330416764
53.5016111181
35.7013112545
32.5764968298
35.6281425236
33.996382579
31.5890602016
34.0319259765
35.6079009439
32.716458536
35.6141970186
37.1742402806
37.3843284994
37.2482943876
37.4770427411
37.6407488326
37.4488913834
37.2972775856
37.3345449457
37.2919095142
