# vtk DataFile Version 2.0
Results
ASCII
DATASET UNSTRUCTURED_GRID
POINTS         27           float
0.0	0.0	0.0	
50.0	0.0	0.0	
100.0	0.0	0.0	
0.0	40.0	0.0	
50.0	40.0	0.0	
100.0	40.0	0.0	
0.0	80.0	0.0	
50.0	80.0	0.0	
100.0	80.0	0.0	
0.0	0.0	70.0	
50.0	0.0	70.0	
100.0	0.0	70.0	
0.0	40.0	70.0	
50.0	40.0	70.0	
100.0	40.0	70.0	
0.0	80.0	70.0	
50.0	80.0	70.0	
100.0	80.0	70.0	
0.0	0.0	140.0	
50.0	0.0	140.0	
100.0	0.0	140.0	
0.0	40.0	140.0	
50.0	40.0	140.0	
100.0	40.0	140.0	
0.0	80.0	140.0	
50.0	80.0	140.0	
100.0	80.0	140.0	

CELLS	8	72
 8	0	1	4	3	9	10	13	12	
 8	1	2	5	4	10	11	14	13	
 8	4	5	8	7	13	14	17	16	
 8	3	4	7	6	12	13	16	15	
 8	9	10	13	12	18	19	22	21	
 8	10	11	14	13	19	20	23	22	
 8	13	14	17	16	22	23	26	25	
 8	12	13	16	15	21	22	25	24	

CELL_TYPES	8
 12
 12
 12
 12
 12
 12
 12
 12

POINT_DATA	27
VECTORS	u 	float 
0.0	0.0	0.0
-0.010796755	0.0	0.0
-0.0211756299	0.0	0.0
0.0	-0.0106316973	0.0
-0.0108060444	-0.0106615113	0.0
-0.0219110961	-0.0104831123	0.0
0.0	-0.0203953218	0.0
-0.0109424271	-0.0220503779	0.0
-0.0217590477	-0.0202319501	0.0
-0.0320080357	-0.0280598317	-0.006541396
-0.0107544102	-0.0268259345	0.0098909078
0.0103989401	-0.0278465298	-0.0065330051
-0.0319526887	-0.0106916143	0.0049431964
-0.010846552	-0.0106440811	0.0214635763
0.010332947	-0.0105127979	0.0049254289
-0.0320779075	0.0064746836	-0.0064779474
-0.0109042609	0.0057332518	0.0099397139
0.0102355967	0.0066545048	-0.0064970552
-0.0853892619	-0.0726013044	0.0577528079
-0.0107647773	-0.0727938806	0.0775067966
0.0639071896	-0.0724332209	0.0577294691
-0.0855619812	-0.0107710147	0.0710255748
-0.0108247505	-0.0106528541	0.0910736303
0.0638781953	-0.0105861094	0.0710230658
-0.0855711621	0.0511544943	0.0577800676
-0.0109026198	0.0513971444	0.077579542
0.0637806807	0.0513348925	0.0577687565

VECTORS	v 	float 
0.0	0.0	0.0
6.43987e-05	0.0	0.0
0.0001248883	0.0	0.0
0.0	5.91265e-05	0.0
5.58133e-05	5.0024e-05	0.0
0.0001148279	5.86235e-05	0.0
0.0	0.0001118861	0.0
6.66434e-05	0.0001050489	0.0
0.0001312785	0.0001111238	0.0
6.2271e-06	1.4342e-05	0.0001156664
5.89843e-05	5.9525e-06	6.95536e-05
0.0001129123	1.23881e-05	0.0001152398
2.3297e-06	5.45197e-05	8.74133e-05
6.18805e-05	5.59023e-05	4.3176e-05
0.0001203255	5.28382e-05	8.78377e-05
6.9129e-06	9.63559e-05	0.0001147443
6.01825e-05	0.0001042889	6.82633e-05
0.0001140506	9.48706e-05	0.0001145267
0.0002266023	0.0001924025	5.65811e-05
6.05857e-05	0.000186471	-3.00597e-05
-0.0001058617	0.0001912246	5.58228e-05
0.0002128188	5.682e-05	-3.9733e-06
6.01469e-05	5.52283e-05	-8.7803e-05
-9.20455e-05	5.54204e-05	-3.1623e-06
0.0002281836	-7.92591e-05	5.50067e-05
6.16119e-05	-7.54432e-05	-3.05476e-05
-0.0001050743	-8.08271e-05	5.43386e-05

VECTORS	a 	float 
0.0	0.0	0.0
0.8951931068	0.0	0.0
1.7883202178	0.0	0.0
0.0	0.7199060616	0.0
0.8887051394	0.7129477054	0.0
1.7791577907	0.7197866141	0.0
0.0	1.4364138563	0.0
0.8968260897	1.4284351491	0.0
1.7924703637	1.436174906	0.0
-0.0019700905	0.0051968744	-3.0749811149
0.8911817033	-0.0015706265	-3.0837980584
1.7849947519	0.0039704091	-3.0753377166
-0.0063071105	0.7163438952	-3.0786154534
0.8932404975	0.7173783731	-3.0854118524
1.7921113338	0.7152562902	-3.0782816939
-0.0014648035	1.4284056183	-3.0754879535
0.8918962949	1.4355165368	-3.0848106227
1.7856368876	1.4274580618	-3.0757428105
-0.0054636745	-0.0029483236	-6.1580161441
0.8923090664	-0.0129605035	-6.1800345182
1.7898844881	-0.0037901754	-6.1586963812
-0.0195711472	0.717962688	-6.1708163739
0.8919905475	0.7169248277	-6.1895862532
1.8038140221	0.7169917061	-6.1701424782
-0.0043770277	1.4386747789	-6.1590842968
0.8930755586	1.4470537384	-6.1803584029
1.7904930748	1.4375771926	-6.1596976166

SCALARS	theta	float 1
LOOKUP_TABLE	default
297.489521562
297.5404032157
297.4924652498
297.5105249463
297.5561093207
297.5108019149
297.4938929098
297.5355045075
297.4938743576
304.4071662085
304.4670010315
304.4067031886
304.4354889536
304.4963280999
304.4354998347
304.4062163719
304.4676520624
304.4062063308
314.7189441428
314.8011241594
314.7188887131
314.7584601337
314.8407038237
314.7583767849
314.7193103773
314.8011444059
314.7192628924

SCALARS	sig_11	float	1
LOOKUP_TABLE	default
13.6610311929
26.5971204077
14.7674503583
23.3472892208
34.7691993052
22.8311860308
14.1251883269
25.0565518463
14.1988759153
-4.7089165158
0.9904815149
-4.7863108379
-0.0192336923
5.8498185143
0.0112273986
-5.0238524105
0.8277065516
-5.039188757
-26.2255517586
-25.3084399297
-26.2033252595
-25.4207196452
-24.4655090721
-25.4279398543
-26.1682202481
-25.2887657453
-26.1604520741

SCALARS	sig_22	float	1
LOOKUP_TABLE	default
7.7076566632
19.7539071456
8.5926041874
18.205823661
28.045443987
18.2110182496
9.8054598952
17.8263554099
9.8712852044
-4.31458429
-0.3777624236
-4.3772016226
0.5819482427
4.7401455246
0.5853542037
-4.5018795535
-0.2695180277
-4.5030448129
-19.5193456505
-18.8116789921
-19.5044352842
-18.7121394435
-17.990962595
-18.705587396
-19.4497476659
-18.854475083
-19.4517234539

SCALARS	sig_33	float	1
LOOKUP_TABLE	default
23.7364521769
55.3536769774
24.3125772069
46.8366611544
77.4127625865
46.6437639438
24.6175331114
54.4574456145
24.6166459075
-5.7094891042
11.3816080869
-5.7721955033
6.8674293843
24.1856538843
6.8702558864
-5.8147958894
11.4381401114
-5.8299605416
-72.7145002709
-68.0091612039
-72.7460216819
-69.8850809158
-64.9912929787
-69.8653059333
-72.7249657971
-67.9876983101
-72.7007821754

SCALARS vonMises	float	1
LOOKUP_TABLE	default
72.3527179878
54.4476153194
71.7884487633
59.572642035
41.0784826164
59.8571136188
71.6683085665
55.8218028833
71.7482992784
58.1926548586
53.7769208025
58.1136244626
55.7016982717
52.7097851907
55.7361847805
58.0912809898
53.8843441835
58.1011473394
69.4322151088
68.2226673414
69.5472985039
68.8688012246
67.6269196798
68.8272977626
69.6270573995
68.1408669075
69.6166667643
