# vtk DataFile Version 2.0
Results
ASCII
DATASET UNSTRUCTURED_GRID
POINTS         27           float
0.0	0.0	0.0	
50.0	0.0	0.0	
100.0	0.0	0.0	
0.0	40.0	0.0	
50.0	40.0	0.0	
100.0	40.0	0.0	
0.0	80.0	0.0	
50.0	80.0	0.0	
100.0	80.0	0.0	
0.0	0.0	70.0	
50.0	0.0	70.0	
100.0	0.0	70.0	
0.0	40.0	70.0	
50.0	40.0	70.0	
100.0	40.0	70.0	
0.0	80.0	70.0	
50.0	80.0	70.0	
100.0	80.0	70.0	
0.0	0.0	140.0	
50.0	0.0	140.0	
100.0	0.0	140.0	
0.0	40.0	140.0	
50.0	40.0	140.0	
100.0	40.0	140.0	
0.0	80.0	140.0	
50.0	80.0	140.0	
100.0	80.0	140.0	

CELLS	8	72
 8	0	1	4	3	9	10	13	12	
 8	1	2	5	4	10	11	14	13	
 8	4	5	8	7	13	14	17	16	
 8	3	4	7	6	12	13	16	15	
 8	9	10	13	12	18	19	22	21	
 8	10	11	14	13	19	20	23	22	
 8	13	14	17	16	22	23	26	25	
 8	12	13	16	15	21	22	25	24	

CELL_TYPES	8
 12
 12
 12
 12
 12
 12
 12
 12

POINT_DATA	27
VECTORS	u 	float 
0.0	0.0	0.0
0.0016418324	0.0	0.0
0.0032843999	0.0	0.0
0.0	0.001665368	0.0
0.0016343727	0.0016580467	0.0
0.0032668361	0.0016785294	0.0
0.0	0.0033771088	0.0
0.0016280202	0.0032803594	0.0
0.00324327	0.0034004219	0.0
0.0018561892	0.0021530572	-0.004811606
0.0016409971	0.0024135754	-0.0040920132
0.0014254153	0.0021708589	-0.0048139975
0.0019076345	0.0016562123	-0.004383437
0.0016350572	0.0016628579	-0.0037078256
0.0013626233	0.0016724147	-0.0043880809
0.0018476119	0.0011487485	-0.0048076221
0.0016279601	0.0009229459	-0.0040844464
0.0014111682	0.0011644311	-0.0048106011
-0.0044346586	-0.0038270276	-0.0080549677
0.0016437255	-0.0034643649	-0.0055836082
0.0077228715	-0.0038112586	-0.0080589191
-0.0042954812	0.0016502777	-0.0060573943
0.0016373416	0.001659274	-0.0036144062
0.007569747	0.0016664088	-0.0060599639
-0.0044500465	0.0071319926	-0.0080494385
0.0016311751	0.0067781349	-0.0055778507
0.0077115471	0.007147708	-0.0080531033

VECTORS	v 	float 
0.0	0.0	0.0
0.0024349567	0.0	0.0
0.0048721877	0.0	0.0
0.0	0.0020891378	0.0
0.0024363447	0.0020832423	0.0
0.0048704891	0.0020932545	0.0
0.0	0.0041974615	0.0
0.002427969	0.0041520614	0.0
0.004853374	0.0042045029	0.0
0.0007207673	0.0008376169	-0.0080905962
0.0024369085	0.0009437188	-0.0077954311
0.0041522642	0.000844657	-0.0080913973
0.0007416217	0.0020834033	-0.0079190649
0.0024334596	0.0020865291	-0.0076394867
0.0041257906	0.0020899713	-0.0079202458
0.0007172137	0.0033247306	-0.0080888961
0.0024319487	0.0032336283	-0.0077918585
0.0041470522	0.0033312602	-0.0080899335
-0.0017659285	-0.001524636	-0.0155508457
0.002437041	-0.0013817143	-0.014556328
0.0066403166	-0.0015184025	-0.0155516157
-0.001711728	0.0020811027	-0.0147510396
0.0024348434	0.0020844969	-0.0137670622
0.0065813334	0.0020874699	-0.0147521824
-0.001771944	0.0056887493	-0.0155486486
0.002432	0.0055487987	-0.0145534755
0.0066356803	0.0056949414	-0.015549326

VECTORS	a 	float 
0.0	0.0	0.0
0.0227935022	0.0	0.0
0.0455780528	0.0	0.0
0.0	0.018506675	0.0
0.0227902109	0.018528556	0.0
0.0455864018	0.0185204441	0.0
0.0	0.0370456736	0.0
0.0227875434	0.0370312331	0.0
0.0455548867	0.037070739	0.0
0.0015359015	0.0017731589	-0.0777265215
0.0227954832	0.0019464346	-0.0772361201
0.0440573095	0.0017868303	-0.0777275371
0.001546972	0.0185169577	-0.0774332265
0.0227908883	0.0185175157	-0.0769849113
0.0440329514	0.018528976	-0.0774402492
0.0015294498	0.0352535459	-0.0777236465
0.0227848173	0.0350966036	-0.0772327897
0.0440450944	0.0352647943	-0.0777250906
-0.0035531952	-0.0030619095	-0.1542194551
0.0227981631	-0.0027868762	-0.1523759379
0.0491497523	-0.003049605	-0.1542236844
-0.0034628718	0.0185103542	-0.1527131948
0.0227935835	0.0185188948	-0.1508958824
0.049049869	0.0185228933	-0.1527162219
-0.0035650039	0.0400857001	-0.1542157055
0.0227886547	0.0398210084	-0.1523732858
0.0491412306	0.0400978279	-0.1542196208

SCALARS	theta	float 1
LOOKUP_TABLE	default
300.2966878474
300.2682985543
300.2952952928
300.2853981292
300.2664363943
300.284793709
300.2903462566
300.2747191812
300.2911584165
299.7166371528
299.6704875675
299.7169886509
299.6651265894
299.6181678195
299.6652917386
299.7184385584
299.6689954943
299.718227418
301.1894722518
301.1075567123
301.189404078
301.0953006415
301.0124991568
301.0951402667
301.1885452023
301.1082963669
301.1887094042

SCALARS	sig_11	float	1
LOOKUP_TABLE	default
-5.1401478364
-3.7917228951
-5.0855470229
-4.268158526
-3.1157669035
-4.2589984121
-5.0477740737
-3.9842909372
-5.0804509932
2.5650942721
4.5458096804
2.5600486368
4.5982506867
6.573980985
4.5969997451
2.5365891085
4.5398853928
2.5380269012
-8.125544955
-5.1780170808
-8.1248506973
-4.9172087944
-1.9562425782
-4.9157263966
-8.1140415866
-5.1806398835
-8.115786285

SCALARS	sig_22	float	1
LOOKUP_TABLE	default
-4.4514420143
-3.244842766
-4.3727083001
-3.508374721
-2.5505906481
-3.4674462735
-4.2540532708
-3.4375850498
-4.246533504
1.8826679154
3.3811567094
1.8798588313
4.0221291429
5.5201168295
4.0229104355
1.8635510201
3.393636421
1.8669630262
-6.8230345047
-4.5457081379
-6.8233400221
-3.4087961655
-1.1191784215
-3.4078700049
-6.8128437272
-4.5524215274
-6.8156021886

SCALARS	sig_33	float	1
LOOKUP_TABLE	default
-19.3857666986
-17.2106819533
-19.3383448237
-17.994199629
-16.0343096908
-17.9833154491
-19.2540593941
-17.3495033541
-19.2726762651
-7.9983142303
-4.5868902146
-8.005233469
-4.7041421517
-1.3062882794
-4.7077491895
-8.0103731476
-4.5767069376
-8.0119157299
-28.1575799048
-23.1766255802
-28.1582309573
-22.9212540629
-17.9184477313
-22.9180441268
-28.1473419603
-23.1829137945
-28.1484042835

SCALARS vonMises	float	1
LOOKUP_TABLE	default
12.5608279028
11.4091982635
12.5869676618
11.324365409
9.8935730737
11.3354301476
12.6154221683
11.3482784362
12.6088754682
13.1931051105
10.5030232349
13.2072959794
10.5241506491
6.481043401
10.5287819265
13.2132471385
10.4660719573
13.2086443812
16.8932880999
14.911664622
16.8958017579
15.3650795674
13.2108072846
15.3638853881
16.9003708044
14.9088705242
16.8981959393
