# vtk DataFile Version 2.0
Results
ASCII
DATASET UNSTRUCTURED_GRID
POINTS         27           float
0.0	0.0	0.0	
50.0	0.0	0.0	
100.0	0.0	0.0	
0.0	40.0	0.0	
50.0	40.0	0.0	
100.0	40.0	0.0	
0.0	80.0	0.0	
50.0	80.0	0.0	
100.0	80.0	0.0	
0.0	0.0	70.0	
50.0	0.0	70.0	
100.0	0.0	70.0	
0.0	40.0	70.0	
50.0	40.0	70.0	
100.0	40.0	70.0	
0.0	80.0	70.0	
50.0	80.0	70.0	
100.0	80.0	70.0	
0.0	0.0	140.0	
50.0	0.0	140.0	
100.0	0.0	140.0	
0.0	40.0	140.0	
50.0	40.0	140.0	
100.0	40.0	140.0	
0.0	80.0	140.0	
50.0	80.0	140.0	
100.0	80.0	140.0	

CELLS	8	72
 8	0	1	4	3	9	10	13	12	
 8	1	2	5	4	10	11	14	13	
 8	4	5	8	7	13	14	17	16	
 8	3	4	7	6	12	13	16	15	
 8	9	10	13	12	18	19	22	21	
 8	10	11	14	13	19	20	23	22	
 8	13	14	17	16	22	23	26	25	
 8	12	13	16	15	21	22	25	24	

CELL_TYPES	8
 12
 12
 12
 12
 12
 12
 12
 12

POINT_DATA	27
VECTORS	u 	float 
0.0	0.0	0.0
-0.0139773428	0.0	0.0
-0.0275071116	0.0	0.0
0.0	-0.0128079952	0.0
-0.0139934236	-0.0128412641	0.0
-0.0283054998	-0.0126378028	0.0
0.0	-0.0246391503	0.0
-0.0141446009	-0.0264996946	0.0
-0.0281652611	-0.0244455933	0.0
-0.0317027454	-0.0269123268	-0.0127085604
-0.0139322646	-0.0254573237	0.0059346995
0.0037297238	-0.0266686326	-0.0127009691
-0.0316209614	-0.0128771425	0.0001717108
-0.0140360329	-0.0128215832	0.0188930678
0.0036266613	-0.0126726375	0.0001499075
-0.0317853975	0.0009312263	-0.0126353682
-0.0141035812	3.47629e-05	0.0059922451
0.0035442919	0.0011363983	-0.0126578115
-0.0986476145	-0.0837555349	0.052735877
-0.0139419939	-0.0838679602	0.0780625497
0.0708154113	-0.0835630759	0.0527080978
-0.0987508775	-0.0129684357	0.0702635539
-0.0140114278	-0.012833781	0.0959023749
0.070691594	-0.0127570429	0.0702590385
-0.0988549296	0.0579257483	0.0527697904
-0.0140997701	0.0580976419	0.078146985
0.0706702886	0.0581319484	0.0527552803

VECTORS	v 	float 
0.0	0.0	0.0
4.9817e-05	0.0	0.0
0.000103536	0.0	0.0
0.0	2.09983e-05	0.0
5.80106e-05	2.70687e-05	0.0
0.0001126521	2.06424e-05	0.0
0.0	4.54694e-05	0.0
4.7915e-05	5.16046e-05	0.0
9.86856e-05	4.49667e-05	0.0
-3.40436e-05	-6.94536e-05	0.0001025983
5.47221e-05	-6.12557e-05	8.27588e-05
0.0001423617	-6.82711e-05	0.0001029514
-2.51883e-05	2.38712e-05	8.87061e-05
5.22769e-05	2.29399e-05	6.82368e-05
0.0001309249	2.49319e-05	8.85822e-05
-3.44045e-05	0.0001162151	0.0001030199
5.411e-05	0.0001079805	8.42591e-05
0.0001418527	0.0001170722	0.0001032836
0.0002711975	0.0002251071	0.0001061927
5.32588e-05	0.0002358426	1.46006e-05
-0.000164315	0.00022587	0.0001070821
0.000290869	2.21557e-05	2.66774e-05
5.37642e-05	2.30932e-05	-6.73246e-05
-0.000183837	2.30921e-05	2.60055e-05
0.0002699908	-0.0001806461	0.0001074234
5.24819e-05	-0.0001898877	1.51094e-05
-0.00016487	-0.0001794931	0.0001082286

VECTORS	a 	float 
0.0	0.0	0.0
-0.8962648669	0.0	0.0
-1.7912251654	0.0	0.0
0.0	-0.7187980052	0.0
-0.891336595	-0.7133506625	0.0
-1.7837777774	-0.7187035935	0.0
0.0	-1.4352194389	0.0
-0.8974628058	-1.4284589845	0.0
-1.7942054516	-1.4350322528	0.0
-0.0008960577	-0.0037492338	3.0774441449
-0.893223138	0.0012324098	3.0833084328
-1.7859825414	-0.0028618579	3.0777199898
0.0021424104	-0.7159763577	3.0795419156
-0.8947612408	-0.7167888201	3.0836998633
-1.7912166491	-0.7151857284	3.0792740835
-0.0012813552	-1.4288441421	3.0778078023
-0.8937392047	-1.4342507539	3.0840300085
-1.7864437416	-1.4281502923	3.078011249
0.0046506062	0.0026895008	6.1568027179
-0.8940664007	0.0110151171	6.1751260957
-1.7926653989	0.003308194	6.1573118954
0.0154868717	-0.7171828268	6.1678353517
-0.8938214304	-0.7164115744	6.1835094907
-1.8032939145	-0.7164765698	6.1673234142
0.0038738384	-1.4369222746	6.1575723046
-0.8946258597	-1.4439982513	6.1753479546
-1.7931149038	-1.4361299445	6.1580323399

SCALARS	theta	float 1
LOOKUP_TABLE	default
297.0230569529
297.0628826522
297.0251233232
297.035133602
297.0699999889
297.0360308264
297.0275558834
297.058239967
297.0274001004
303.5532104198
303.6463489023
303.5526647495
303.6013157981
303.6952908522
303.601115347
303.5524288037
303.6472421041
303.5524315472
316.7475675257
316.9128538481
316.7476077697
316.8369565592
317.0023772568
316.8369534232
316.7479668237
316.9128187381
316.7478800882

SCALARS	sig_11	float	1
LOOKUP_TABLE	default
8.1938092391
23.0027180909
9.4160325377
19.1461250589
32.2653459926
18.5959537786
8.7114336728
21.2512898429
8.7689375168
0.6139726074
7.6045633051
0.5307731713
6.5109385393
13.6871894712
6.5438718399
0.2579675071
7.419451426
0.2428077342
-36.4585338423
-34.5844541115
-36.4357457128
-34.4701796891
-32.5512919707
-34.4778412726
-36.3931904371
-34.5611770283
-36.3857246981

SCALARS	sig_22	float	1
LOOKUP_TABLE	default
2.7625965781
16.5590219034
3.7705125516
14.6369207234
25.9426321783
14.666188174
5.1260975708
14.377871981
5.2092385668
-0.147806449
4.7200111762
-0.2137257346
6.0400862556
11.1535426783
6.0456952948
-0.3600658283
4.8404962843
-0.3584806585
-27.6557959397
-26.239625022
-27.6414498555
-25.511810405
-24.0784823048
-25.5052717735
-27.5772599484
-26.2872909769
-27.5810632329

SCALARS	sig_33	float	1
LOOKUP_TABLE	default
16.6525524876
52.6764119461
17.3032468587
42.6602277803
77.4899292899
42.4529427868
17.6484180309
51.6556608809
17.6395687413
2.3522539762
23.9257500092
2.2846719719
18.6559563152
40.4736278858
18.6586171864
2.2335239414
23.9879208122
2.2163888349
-98.1817001429
-88.6844776351
-98.2187960116
-90.7577801324
-81.0473262069
-90.7358942091
-98.1914560305
-88.6595248798
-98.1662236905

SCALARS vonMises	float	1
LOOKUP_TABLE	default
67.8419119518
51.4094093419
67.2389562396
57.3081985096
42.3516360109
57.6090223762
67.1549541217
52.9782364478
67.2568017407
68.2602879807
64.402391817
68.2372216847
65.8425386873
62.7126552731
65.8552953716
68.234898454
64.3805259481
68.2457312611
89.1083756054
86.0992065097
89.2347272898
87.3790605872
84.4239576131
87.3365392086
89.3262472576
86.0051936605
89.3124200682
