# vtk DataFile Version 2.0
Results
ASCII
DATASET UNSTRUCTURED_GRID
POINTS         27           float
0.0	0.0	0.0	
50.0	0.0	0.0	
100.0	0.0	0.0	
0.0	40.0	0.0	
50.0	40.0	0.0	
100.0	40.0	0.0	
0.0	80.0	0.0	
50.0	80.0	0.0	
100.0	80.0	0.0	
0.0	0.0	70.0	
50.0	0.0	70.0	
100.0	0.0	70.0	
0.0	40.0	70.0	
50.0	40.0	70.0	
100.0	40.0	70.0	
0.0	80.0	70.0	
50.0	80.0	70.0	
100.0	80.0	70.0	
0.0	0.0	140.0	
50.0	0.0	140.0	
100.0	0.0	140.0	
0.0	40.0	140.0	
50.0	40.0	140.0	
100.0	40.0	140.0	
0.0	80.0	140.0	
50.0	80.0	140.0	
100.0	80.0	140.0	

CELLS	8	72
 8	0	1	4	3	9	10	13	12	
 8	1	2	5	4	10	11	14	13	
 8	4	5	8	7	13	14	17	16	
 8	3	4	7	6	12	13	16	15	
 8	9	10	13	12	18	19	22	21	
 8	10	11	14	13	19	20	23	22	
 8	13	14	17	16	22	23	26	25	
 8	12	13	16	15	21	22	25	24	

CELL_TYPES	8
 12
 12
 12
 12
 12
 12
 12
 12

POINT_DATA	27
VECTORS	u 	float 
0.0	0.0	0.0
0.0047586887	0.0	0.0
0.0095301404	0.0	0.0
0.0	0.0073625558	0.0
0.0047001259	0.0073124428	0.0
0.0093880373	0.0075017786	0.0
0.0	0.0152797975	0.0
0.0046110606	0.0141830688	0.0
0.0090882356	0.0155130171	0.0
0.0167800236	0.0202656628	-0.0154684416
0.0047624219	0.0228712367	-0.0065989011
-0.0072624982	0.0204548789	-0.015489702
0.016931148	0.0072841242	-0.0102586175
0.0046948345	0.0073463139	-0.0017646074
-0.0075424276	0.0074540246	-0.010302171
0.0166886566	-0.0058290934	-0.0154188585
0.0046248273	-0.0080471198	-0.0065303852
-0.0074094024	-0.0056622247	-0.0154487132
-0.0541762157	-0.0466982122	-0.0091911843
0.0047845772	-0.0433565378	0.0193080564
0.0637534274	-0.0465334983	-0.0092286591
-0.0534327875	0.0072158714	0.0138113053
0.0047184184	0.0073169853	0.0421064515
0.0628689277	0.0073867559	0.0137857736
-0.054336823	0.0611911183	-0.0091421217
0.0046527682	0.0579276695	0.0193737102
0.0636312324	0.0613567669	-0.0091754615

VECTORS	v 	float 
0.0	0.0	0.0
0.0022615242	0.0	0.0
0.0045217345	0.0	0.0
0.0	0.001885723	0.0
0.0022594731	0.0018904012	0.0
0.0045202731	0.0018898553	0.0
0.0	0.0037851559	0.0
0.0022593128	0.0037693037	0.0
0.0045134109	0.0037918747	0.0
0.0003105194	0.0004086019	-0.0080197159
0.0022614745	0.00045757	-0.0077807077
0.0042126846	0.0004129764	-0.0080200143
0.0003005196	0.0018876966	-0.0078752061
0.0022601862	0.001888092	-0.007645329
0.0042193488	0.0018914576	-0.0078767224
0.0003084805	0.0033635434	-0.0080183018
0.0022581367	0.0033219824	-0.0077802462
0.004209037	0.0033672353	-0.00801889
-0.0015696572	-0.0013460144	-0.0153183758
0.0022621555	-0.0012858365	-0.0145920451
0.0060941285	-0.0013423154	-0.0153195659
-0.0015725889	0.0018857356	-0.0147304179
0.0022606181	0.0018885059	-0.014008467
0.0060939115	0.0018896221	-0.0147310234
-0.0015732053	0.0051191383	-0.015317514
0.0022592745	0.0050611444	-0.0145910099
0.0060913944	0.005122842	-0.0153185654

VECTORS	a 	float 
0.0	0.0	0.0
0.2913375933	0.0	0.0
0.582601497	0.0	0.0
0.0	0.2333857948	0.0
0.2911959338	0.2332841494	0.0
0.5824518373	0.233403046	0.0
0.0	0.4667172094	0.0
0.2913804646	0.4666051747	0.0
0.5826950023	0.4667487656	0.0
0.0019589787	0.0022169954	-1.0018770833
0.291255651	0.0022202628	-1.0017111065
0.5805749913	0.0022002664	-1.0018864322
0.0018592884	0.2333388553	-1.0017380047
0.2912983586	0.2333565706	-1.0015986751
0.5807153276	0.2333232988	-1.0017410201
0.0019654764	0.464477021	-1.0018843863
0.2912613524	0.4644809317	-1.0017392869
0.5805761521	0.464463925	-1.0018927836
-0.0039304889	-0.0033396452	-2.0022180098
0.2912839932	-0.0032400648	-2.0010229748
0.5864939894	-0.0033485498	-2.0022440526
-0.0041084817	0.2333684852	-2.0010611095
0.2912739998	0.2333547188	-1.9998387239
0.5866628147	0.2333563469	-2.0010459939
-0.0039134716	0.4700760068	-2.0022425763
0.2912950586	0.4699504255	-2.001029151
0.5865014053	0.4700596544	-2.0022671332

SCALARS	theta	float 1
LOOKUP_TABLE	default
302.2283460027
302.0195684085
302.2178445999
302.1485168756
301.9767932246
302.1443640246
302.1977144273
302.0527492281
302.202116996
296.6165841667
296.3015221562
296.618652395
296.3614622487
296.0416977065
296.3622530024
296.6239800678
296.2962732049
296.623125233
312.7992239611
312.2842888085
312.7989384941
312.3467390556
311.8311524396
312.3461695555
312.7965037012
312.2858739201
312.7969600322

SCALARS	sig_11	float	1
LOOKUP_TABLE	default
-50.0184543248
-37.3565816433
-49.5645614531
-42.4833979588
-31.0832838718
-42.3303954208
-49.4288375794
-38.9442545293
-49.7880108492
30.8901991245
48.3436785589
30.854650737
46.8152477524
64.2591359722
46.8006374449
30.6470413732
48.2305604023
30.6622009044
-79.1693691768
-54.4425556625
-79.170370381
-54.9710580123
-30.181291209
-54.9585189499
-79.1030131697
-54.4291264526
-79.1182531977

SCALARS	sig_22	float	1
LOOKUP_TABLE	default
-43.2584208814
-31.909283648
-42.5111101954
-35.0737999593
-25.6467976813
-34.6067705967
-41.516021329
-33.6114737125
-41.427584346
23.7589980461
36.4788799605
23.7433446042
40.2026808035
52.9721756596
40.2123047105
23.6055444417
36.5664447107
23.6390971436
-64.7386920441
-46.3056207626
-64.7497745659
-39.3512327843
-20.8774428456
-39.345304033
-64.6715710997
-46.3418090451
-64.6981903578

SCALARS	sig_33	float	1
LOOKUP_TABLE	default
-79.3968797839
-56.6340800455
-78.998734541
-65.7381498693
-44.4276591358
-65.5973294169
-78.4175709204
-57.6964257715
-78.5994289807
38.8219022557
72.5684098314
38.7652815805
68.410588786
102.0742090972
68.3768315384
38.7449655309
72.6201328452
38.7245913567
-175.5605112041
-128.2575359308
-175.5844050822
-129.7247559802
-82.2757468458
-129.6918830173
-175.5199782732
-128.2635099877
-175.5292923356

SCALARS vonMises	float	1
LOOKUP_TABLE	default
72.4926864079
60.504856111
72.7951008906
54.1803232857
33.6917373539
54.2611269348
73.2980134695
59.8461337204
73.1957671588
116.7351865698
94.4619544769
116.9017397507
91.3062886572
60.4897716377
91.3394069685
117.0673080599
94.0130614954
117.0054620798
117.7330500247
100.0547076265
117.7686385771
105.9885619211
88.5653735308
105.9868408158
117.8563552298
99.9890649146
117.8249311739
