# vtk DataFile Version 2.0
Results
ASCII
DATASET UNSTRUCTURED_GRID
POINTS         27           float
0.0	0.0	0.0	
50.0	0.0	0.0	
100.0	0.0	0.0	
0.0	40.0	0.0	
50.0	40.0	0.0	
100.0	40.0	0.0	
0.0	80.0	0.0	
50.0	80.0	0.0	
100.0	80.0	0.0	
0.0	0.0	70.0	
50.0	0.0	70.0	
100.0	0.0	70.0	
0.0	40.0	70.0	
50.0	40.0	70.0	
100.0	40.0	70.0	
0.0	80.0	70.0	
50.0	80.0	70.0	
100.0	80.0	70.0	
0.0	0.0	140.0	
50.0	0.0	140.0	
100.0	0.0	140.0	
0.0	40.0	140.0	
50.0	40.0	140.0	
100.0	40.0	140.0	
0.0	80.0	140.0	
50.0	80.0	140.0	
100.0	80.0	140.0	

CELLS	8	72
 8	0	1	4	3	9	10	13	12	
 8	1	2	5	4	10	11	14	13	
 8	4	5	8	7	13	14	17	16	
 8	3	4	7	6	12	13	16	15	
 8	9	10	13	12	18	19	22	21	
 8	10	11	14	13	19	20	23	22	
 8	13	14	17	16	22	23	26	25	
 8	12	13	16	15	21	22	25	24	

CELL_TYPES	8
 12
 12
 12
 12
 12
 12
 12
 12

POINT_DATA	27
VECTORS	u 	float 
0.0	0.0	0.0
0.0035568004	0.0	0.0
0.0071829143	0.0	0.0
0.0	0.0082460394	0.0
0.0034619154	0.0081929666	0.0
0.0068791807	0.0084865083	0.0
0.0	0.0175020354	0.0
0.0033117465	0.0155685666	0.0
0.0064214713	0.0178863759	0.0
0.021501292	0.0279709458	-0.0256734256
0.0035684879	0.0320359025	-0.0086021589
-0.0143891189	0.0282951493	-0.025703296
0.0215820131	0.0081343827	-0.0154389321
0.0034514662	0.0082325441	0.0011028568
-0.0146746446	0.0084213789	-0.0155071174
0.0213492801	-0.0119402179	-0.0255834046
0.0033336413	-0.0153338957	-0.0084978314
-0.0146382917	-0.0116571712	-0.0256318205
-0.1030420391	-0.0884323207	-0.004327375
0.0035999248	-0.0836608775	0.0459394799
0.1102609728	-0.0881552595	-0.0043880996
-0.102207203	0.0080155335	0.0358062941
0.003488865	0.0081912386	0.085830307
0.1091816568	0.0083063439	0.0357672948
-0.1033149744	0.1045753906	-0.004252116
0.003377313	0.0999298011	0.046052226
0.1100529016	0.1048573438	-0.0043040421

VECTORS	v 	float 
0.0	0.0	0.0
-0.0023286458	0.0	0.0
-0.0046520568	0.0	0.0
0.0	-0.0018272677	0.0
-0.0023190434	-0.0018172714	0.0
-0.0046419533	-0.0018244259	0.0
0.0	-0.0036374826	0.0
-0.0023333128	-0.0036483163	0.0
-0.0046661846	-0.0036333744	0.0
-3.068e-07	8.26547e-05	0.0074110487
-0.0023219663	0.0001236526	0.0076608279
-0.0046451842	8.7845e-05	0.0074112699
4.57e-07	-0.0018229333	0.007563288
-0.0023263759	-0.001823482	0.0078081095
-0.0046519862	-0.0018184422	0.0075623013
-2.4854e-06	-0.0037326081	0.0074125555
-0.0023254488	-0.003766687	0.0076632348
-0.0046487064	-0.0037283404	0.0074124434
-0.0013936301	-0.0011881925	0.015607982
-0.0023234731	-0.0011502301	0.0162073649
-0.0032526711	-0.0011840289	0.0156082237
-0.001377555	-0.0018264876	0.0160597753
-0.00232413	-0.0018231427	0.0166558097
-0.0032712101	-0.0018219228	0.0160586154
-0.0013982311	-0.0024631947	0.0156098666
-0.0023270303	-0.0024977046	0.016209093
-0.0032558603	-0.0024585399	0.0156102675

VECTORS	a 	float 
0.0	0.0	0.0
-0.5871403037	0.0	0.0
-1.1740142417	0.0	0.0
0.0	-0.4701653761	0.0
-0.5863318115	-0.4693571586	0.0
-1.1728877782	-0.4701693948	0.0
0.0	-0.9399591208	0.0
-0.5873345561	-0.9389885262	0.0
-1.1744947349	-0.9399638678	0.0
-0.0029820232	-0.0032853818	2.0183374206
-0.5866460575	-0.002786742	2.0189229351
-1.1703940166	-0.00315157	2.0183765927
-0.0026992674	-0.4697541578	2.0183853234
-0.5868943106	-0.4698758343	2.0188608523
-1.1710024032	-0.4696356709	2.0183546854
-0.0030369512	-0.9363240977	2.0183781288
-0.5867198513	-0.9368769597	2.0190580746
-1.1704561559	-0.9362236488	2.0184129621
0.0049255247	0.0040194195	4.0338533659
-0.58678746	0.0046814919	4.034620368
-1.1784780399	0.0041049861	4.0339416769
0.0061236596	-0.469938969	4.0335161002
-0.5867431657	-0.4698281344	4.0340124305
-1.1796423942	-0.4698371578	4.0334346816
0.004802411	-0.9438830891	4.0339749959
-0.5868714306	-0.9443583512	4.0346544658
-1.1785404416	-0.9437633784	4.0340607535

SCALARS	theta	float 1
LOOKUP_TABLE	default
302.7846968857
302.510056769
302.7699355564
302.673623101
302.4326340791
302.6700357351
302.756727284
302.5424914788
302.7599752892
294.8292062964
294.4891087727
294.8314127826
294.6104223069
294.265682672
294.6107868693
294.8357363666
294.4855714338
294.835272048
322.6835104494
322.1844230157
322.6834792679
322.3273321668
321.8281659799
322.3270976709
322.6817346278
322.1848244296
322.6818554184

SCALARS	sig_11	float	1
LOOKUP_TABLE	default
-76.5089381723
-55.6914147726
-75.6827027301
-64.0836310879
-45.1368907339
-63.938065634
-75.7476595609
-58.1516096404
-76.256447705
52.5057687865
78.3611352451
52.449132071
74.9342149128
100.8090368696
74.9200233257
52.1025680366
78.1499171909
52.121554266
-125.9620678057
-91.4049705783
-125.9635170979
-93.6259039291
-58.9935475007
-93.612837999
-125.8691679864
-91.3708242879
-125.8875185937

SCALARS	sig_22	float	1
LOOKUP_TABLE	default
-66.6453427873
-47.8905894329
-65.387667923
-53.136224251
-37.4273469985
-52.4517513853
-63.8307385826
-50.6327900812
-63.6497595762
40.8349459444
59.3079123463
40.8105916479
63.9624827882
82.5558276948
63.9823823456
40.5867006421
59.4450029979
40.6364368628
-101.7603999032
-76.5145706575
-101.7765718825
-67.8034555571
-42.5226296928
-67.7991645307
-101.660111167
-76.565668303
-101.6963457435

SCALARS	sig_33	float	1
LOOKUP_TABLE	default
-114.1725016027
-73.8311681441
-113.5005498765
-89.7604584596
-51.5111494405
-89.6025858764
-112.7505296006
-75.396515001
-112.9858382508
72.9383470444
127.4455734214
72.8551016149
118.8960598723
173.3115869313
118.8516145555
72.8186726089
127.5187139354
72.7846121001
-283.1061708753
-210.5458527405
-283.1526539651
-214.9763431917
-142.2210184012
-214.9318130795
-283.0691211825
-210.5315050909
-283.0740714977

SCALARS vonMises	float	1
LOOKUP_TABLE	default
103.171541059
87.5858531661
103.7354838133
75.9649584798
49.1373580531
76.0701764118
104.6496906134
86.4938267265
104.4894547626
192.5210634503
158.4894337348
192.8289411871
153.1565264004
107.521615574
153.1941718258
193.1196595039
157.7203589449
193.0183827545
198.0831123911
170.9316148047
198.1563764887
180.749876845
154.6103776626
180.7472932528
198.3032943462
170.8165021627
198.250921621
