# vtk DataFile Version 2.0
Results
ASCII
DATASET UNSTRUCTURED_GRID
POINTS         27           float
0.0	0.0	0.0	
50.0	0.0	0.0	
100.0	0.0	0.0	
0.0	40.0	0.0	
50.0	40.0	0.0	
100.0	40.0	0.0	
0.0	80.0	0.0	
50.0	80.0	0.0	
100.0	80.0	0.0	
0.0	0.0	70.0	
50.0	0.0	70.0	
100.0	0.0	70.0	
0.0	40.0	70.0	
50.0	40.0	70.0	
100.0	40.0	70.0	
0.0	80.0	70.0	
50.0	80.0	70.0	
100.0	80.0	70.0	
0.0	0.0	140.0	
50.0	0.0	140.0	
100.0	0.0	140.0	
0.0	40.0	140.0	
50.0	40.0	140.0	
100.0	40.0	140.0	
0.0	80.0	140.0	
50.0	80.0	140.0	
100.0	80.0	140.0	

CELLS	8	72
 8	0	1	4	3	9	10	13	12	
 8	1	2	5	4	10	11	14	13	
 8	4	5	8	7	13	14	17	16	
 8	3	4	7	6	12	13	16	15	
 8	9	10	13	12	18	19	22	21	
 8	10	11	14	13	19	20	23	22	
 8	13	14	17	16	22	23	26	25	
 8	12	13	16	15	21	22	25	24	

CELL_TYPES	8
 12
 12
 12
 12
 12
 12
 12
 12

POINT_DATA	27
VECTORS	u 	float 
0.0	0.0	0.0
0.0043903972	0.0	0.0
0.0088241594	0.0	0.0
0.0	0.0084004022	0.0
0.0043090724	0.008347845	0.0
0.0085890056	0.0086069865	0.0
0.0	0.0176555897	0.0
0.0041766505	0.0160070393	0.0
0.0081693743	0.0179909873	0.0
0.0208681679	0.026307074	-0.0221302083
0.0044000758	0.0299299811	-0.0079680461
-0.012085377	0.0265864449	-0.0221578352
0.0209653644	0.0082991559	-0.0137132936
0.0042991867	0.0083856626	-3.87915e-05
-0.0123655382	0.0085476182	-0.0137738688
0.0207356623	-0.009910897	-0.022053773
0.0041974872	-0.0129573451	-0.0078746574
-0.0123005569	-0.0096661051	-0.0220962478
-0.0858910123	-0.0738259044	-0.0067365914
0.0044288096	-0.0694320016	0.0363287775
0.0947632563	-0.073585576	-0.0067896883
-0.0850809348	0.0081968069	0.0277944715
0.0043324929	0.0083478209	0.0706208763
0.0937441367	0.008448143	0.0277592553
-0.0861268672	0.090314433	-0.0066694702
0.0042359123	0.0860310861	0.0364261705
0.09458327	0.0905580726	-0.0067154589

VECTORS	v 	float 
0.0	0.0	0.0
-0.0022950163	0.0	0.0
-0.0045881525	0.0	0.0
0.0	-0.0017911905	0.0
-0.0022909438	-0.0017770933	0.0
-0.0045831855	-0.0017869277	0.0
0.0	-0.0035661591	0.0
-0.0022977933	-0.0035678298	0.0
-0.0045989075	-0.0035592424	0.0
9.22825e-05	0.0001816183	0.0074059605
-0.0022911497	0.0002215251	0.0076461696
-0.0046751709	0.0001868361	0.007406016
8.72382e-05	-0.0017839432	0.0075553981
-0.0022942259	-0.0017852051	0.0077873948
-0.0046752487	-0.0017796002	0.0075535715
9.01559e-05	-0.0037534003	0.00740757
-0.0022949591	-0.00378791	0.0076474886
-0.0046792733	-0.003749421	0.0074072565
-0.001449069	-0.001237327	0.0155744804
-0.0022916406	-0.0011932447	0.0162078738
-0.0031336652	-0.0012335099	0.0155737605
-0.0014393965	-0.0017874898	0.0160675835
-0.0022925912	-0.0017838809	0.0166960152
-0.0031462477	-0.0017832795	0.0160665461
-0.0014533003	-0.0023360991	0.0155763958
-0.0022947215	-0.0023762789	0.016208756
-0.0031363375	-0.0023318369	0.0155758014

VECTORS	a 	float 
0.0	0.0	0.0
-0.4795362598	0.0	0.0
-0.9588723923	0.0	0.0
0.0	-0.3839947268	0.0
-0.4790326739	-0.3835722639	0.0
-0.9582315847	-0.384012597	0.0
0.0	-0.7677499133	0.0
-0.4796761221	-0.7673171328	0.0
-0.9592043289	-0.7677822501	0.0
-0.0026075887	-0.0028939822	1.6485920749
-0.4792326946	-0.0025396383	1.6490301259
-0.955920017	-0.0028109588	1.6486174688
-0.0023359177	-0.3837908153	1.6486543578
-0.4793897595	-0.3838534021	1.6490693582
-0.9563813079	-0.3837157182	1.6486448601
-0.0026423683	-0.764753113	1.6486170044
-0.4792754613	-0.7651126918	1.6491255771
-0.955952764	-0.7646880959	1.6486397854
0.0044833329	0.0037121363	3.2949850542
-0.4793245408	0.00406574	3.2951683002
-0.9631174812	0.0037648917	3.2950501654
0.0052799668	-0.3839010324	3.29446576
-0.4792969808	-0.3838373356	3.2945062693
-0.9638947303	-0.3838377853	3.2944140957
0.0044061672	-0.7715051847	3.2950627955
-0.4793778925	-0.7717521229	3.2951967701
-0.9631574784	-0.7714299769	3.2951259529

SCALARS	theta	float 1
LOOKUP_TABLE	default
302.7189739751
302.4604301813
302.7052869808
302.6165236475
302.3932786042
302.6126290405
302.6894224609
302.4939232006
302.6931408393
295.3110413395
294.9659251311
295.3133016586
295.0732621322
294.723381003
295.0737841837
295.3179246466
294.9617741016
295.3173415392
319.3406065732
318.812366625
319.3404439228
318.9384447689
318.4101071329
318.9381083592
319.3385523232
318.8131041622
319.3387557034

SCALARS	sig_11	float	1
LOOKUP_TABLE	default
-68.841064223
-50.7443660344
-68.1547047232
-58.1095734249
-41.6666164205
-57.9429669818
-68.1343814029
-52.9131220391
-68.6066071238
45.8326723274
69.1862287104
45.7839097555
66.339155097
89.6988534729
66.3234672443
45.4852135066
69.0071729241
45.5036513946
-111.3550617965
-79.4704788701
-111.3569925624
-81.198723578
-49.2421200791
-81.185109648
-111.2719628828
-79.442352179
-111.2899145442

SCALARS	sig_22	float	1
LOOKUP_TABLE	default
-59.7706740087
-43.5024379408
-58.6860467131
-48.1024940051
-34.492907443
-47.4752294088
-57.3197672341
-45.8934888782
-57.1710317538
35.5709341844
52.3500573456
35.5503458177
56.6967905379
73.5697033673
56.7132760099
35.3558202585
52.4693165171
35.4009265604
-90.2553823221
-66.8235566913
-90.2707096986
-58.6411079205
-35.171944614
-58.6360619772
-90.166923502
-66.8689058325
-90.2008004543

SCALARS	sig_33	float	1
LOOKUP_TABLE	default
-104.2354800628
-69.9697157946
-103.6601155642
-83.6422690295
-51.2551111201
-83.4789596727
-102.9595369277
-71.3699081829
-103.1839553071
62.4657988587
110.3808613575
62.3909928528
103.2600421453
151.0818613087
103.2180624114
62.3620511453
110.4453895743
62.3320048891
-248.6821738561
-183.6643794783
-248.7213961799
-187.1697550413
-121.9709078844
-187.1281146586
-248.6442415965
-183.6561004246
-248.6516906898

SCALARS vonMises	float	1
LOOKUP_TABLE	default
95.5131273258
80.4832176912
95.983017786
70.6105018428
44.7112077251
70.7089323296
96.7503023127
79.5287152825
96.6113613383
168.8139461292
138.1958028344
169.0713906666
133.5459089987
92.114806341
133.5832194939
169.3200085172
137.5331827091
169.2331420387
171.825769811
147.4886040515
171.8846159631
156.1525372255
132.5829613686
156.1511718838
172.0131880779
147.3894017359
171.9672175292
