# vtk DataFile Version 2.0
Results
ASCII
DATASET UNSTRUCTURED_GRID
POINTS         27           float
0.0	0.0	0.0	
50.0	0.0	0.0	
100.0	0.0	0.0	
0.0	40.0	0.0	
50.0	40.0	0.0	
100.0	40.0	0.0	
0.0	80.0	0.0	
50.0	80.0	0.0	
100.0	80.0	0.0	
0.0	0.0	70.0	
50.0	0.0	70.0	
100.0	0.0	70.0	
0.0	40.0	70.0	
50.0	40.0	70.0	
100.0	40.0	70.0	
0.0	80.0	70.0	
50.0	80.0	70.0	
100.0	80.0	70.0	
0.0	0.0	140.0	
50.0	0.0	140.0	
100.0	0.0	140.0	
0.0	40.0	140.0	
50.0	40.0	140.0	
100.0	40.0	140.0	
0.0	80.0	140.0	
50.0	80.0	140.0	
100.0	80.0	140.0	

CELLS	8	72
 8	0	1	4	3	9	10	13	12	
 8	1	2	5	4	10	11	14	13	
 8	4	5	8	7	13	14	17	16	
 8	3	4	7	6	12	13	16	15	
 8	9	10	13	12	18	19	22	21	
 8	10	11	14	13	19	20	23	22	
 8	13	14	17	16	22	23	26	25	
 8	12	13	16	15	21	22	25	24	

CELL_TYPES	8
 12
 12
 12
 12
 12
 12
 12
 12

POINT_DATA	27
VECTORS	u 	float 
0.0	0.0	0.0
0.0015770911	0.0	0.0
0.0034349487	0.0	0.0
0.0	-0.0004025466	0.0
0.0015740302	-0.0004208491	0.0
0.002946753	-0.000307528	0.0
0.0	-0.0002453291	0.0
0.0014846892	-0.0013122224	0.0
0.0030582372	-0.0001444339	0.0
-0.0232913055	-0.0209627215	0.0094448382
0.0016058556	-0.0201943832	0.0199573335
0.0264363981	-0.020826598	0.0094513491
-0.0232762395	-0.0004393413	0.0168810138
0.001546287	-0.0004097759	0.0274619663
0.026418451	-0.0003251592	0.016870402
-0.0233341046	0.0199534477	0.0094839811
0.0015101999	0.0195001959	0.0199862475
0.0263308087	0.0200685451	0.0094720551
-0.0535333691	-0.0456038173	0.0655607789
0.0015981384	-0.0457712492	0.0764032251
0.0567610967	-0.0454966839	0.0655466748
-0.0537120572	-0.0004885632	0.0725428746
0.0015602642	-0.0004130358	0.0835850868
0.0568095597	-0.0003704603	0.0725422385
-0.0536494687	0.0446879666	0.0655751315
0.0015101664	0.0448866564	0.0764473087
0.0566802405	0.0448034019	0.0655689393

VECTORS	v 	float 
0.0	0.0	0.0
5.50584e-05	0.0	0.0
0.0001063884	0.0	0.0
0.0	5.98099e-05	0.0
4.45889e-05	4.7453e-05	0.0
9.22509e-05	5.91169e-05	0.0
0.0	0.0001132027	0.0
5.71057e-05	9.99861e-05	0.0
0.0001125887	0.0001120905	0.0
3.48727e-05	5.04147e-05	8.38587e-05
4.84867e-05	4.30004e-05	4.83514e-05
6.32221e-05	4.84386e-05	8.33331e-05
3.14237e-05	5.3272e-05	6.05788e-05
5.17699e-05	5.52295e-05	2.71828e-05
7.10106e-05	5.15971e-05	6.12443e-05
3.54811e-05	5.7791e-05	8.2965e-05
4.97178e-05	6.58544e-05	4.70813e-05
6.44696e-05	5.63393e-05	8.26427e-05
0.0001305717	0.000117988	1.64301e-05
5.03275e-05	0.0001091417	-2.63461e-05
-3.03501e-05	0.0001167815	1.56122e-05
0.0001137076	5.59341e-05	-9.9126e-06
4.97125e-05	5.41685e-05	-4.95786e-05
-1.37678e-05	5.45027e-05	-8.932e-06
0.0001321881	-6.571e-06	1.4752e-05
5.13423e-05	-2.474e-07	-2.66873e-05
-2.96069e-05	-8.1873e-06	1.40365e-05

VECTORS	a 	float 
0.0	0.0	0.0
0.8920270418	0.0	0.0
1.7792649427	0.0	0.0
0.0	0.7231529397	0.0
0.8804772567	0.7112837865	0.0
1.7649964315	0.7228841634	0.0
0.0	1.4391372586	0.0
0.895169766	1.428016381	0.0
1.787592103	1.4385991759	0.0
-0.0112380885	0.0095926852	-3.0651440965
0.8848301817	-0.0042281692	-3.0865443155
1.7823658966	0.0071056197	-3.0657550939
-0.0201642997	0.7172267626	-3.0755630016
0.88863759	0.7189332328	-3.0939385876
1.7959510362	0.7150433288	-3.0749786496
-0.0102907833	1.4267793382	-3.0661212027
0.8862950786	1.4403505104	-3.0886380922
1.7837039518	1.4249008436	-3.0665402755
-0.0063787186	-0.002892326	-6.1575245193
0.8868528004	-0.0192301824	-6.1972527403
1.7795920405	-0.0046268615	-6.1587504384
-0.0316827746	0.7202712486	-6.1795208528
0.8863592467	0.7182897043	-6.2141471049
1.805025373	0.7182563345	-6.178288234
-0.0040750932	1.4429870744	-6.1596186847
0.8884464255	1.4563748824	-6.1979801292
1.7808470065	1.4406978509	-6.1607325575

SCALARS	theta	float 1
LOOKUP_TABLE	default
299.9580383028
300.0020433941
299.9607462985
299.9792755946
300.0190256832
299.979139617
299.9612256048
299.9979643205
299.9611003548
305.18942161
305.208872177
305.1891626344
305.1981785837
305.2184532381
305.1983150676
305.1885143052
305.2091030836
305.1885097423
310.8736820982
310.8767809319
310.8736163892
310.8727777419
310.8759183582
310.8727167699
310.8738696346
310.8767906673
310.8739064627

SCALARS	sig_11	float	1
LOOKUP_TABLE	default
13.2074418741
21.4056137163
13.9299849198
19.4154098206
26.635860343
19.0687264506
13.507753714
20.4266869422
13.56842777
-6.6794982742
-3.2965135131
-6.7317867859
-4.0220645532
-0.5266134613
-4.0019420051
-6.8815069269
-3.3995798906
-6.8922897769
-12.7469061519
-12.5859132095
-12.7316735262
-12.8832171026
-12.699496926
-12.8883640089
-12.7102628435
-12.5739897505
-12.7049726442

SCALARS	sig_22	float	1
LOOKUP_TABLE	default
8.5936858331
16.2256054929
9.1573555978
15.3116532344
21.5294850966
15.304851235
9.9433361703
14.9934923339
9.9827781577
-5.674102841
-3.3646053733
-5.7170480791
-2.9344961345
-0.4801854426
-2.9331769414
-5.7935081127
-3.2929873508
-5.7954594396
-9.1499893669
-9.0215908245
-9.1392718807
-9.3979081117
-9.2628312711
-9.3934334651
-9.104795334
-9.0492235177
-9.1055270198

SCALARS	sig_33	float	1
LOOKUP_TABLE	default
21.4411175461
41.5910123439
21.8089597451
36.3274060218
55.8255828609
36.199111488
22.00465166
41.0244902059
22.0099381573
-9.0721711189
0.5825882419
-9.1148449553
-2.2728069281
7.5357393168
-2.2708557956
-9.1398144022
0.6209708317
-9.1492307074
-36.9779266309
-36.4363605172
-36.9978475615
-37.7516190015
-37.0903962467
-37.7389004453
-36.9857866898
-36.4228389196
-36.9694087723

SCALARS vonMises	float	1
LOOKUP_TABLE	default
55.0625890469
41.3306043252
54.6851645081
44.5012622434
29.034392449
44.6939112652
54.5881449802
42.2089692308
54.6345623487
36.5627104725
33.3656594163
36.4880844548
34.8175307851
32.3644419536
34.8537163464
36.467438239
33.5078986767
36.4738682992
38.169733306
38.3685459963
38.2454598894
38.4680691554
38.6197029182
38.4393416371
38.2956983104
38.3175555566
38.2901062548
