# vtk DataFile Version 2.0
Results
ASCII
DATASET UNSTRUCTURED_GRID
POINTS         27           float
0.0	0.0	0.0	
50.0	0.0	0.0	
100.0	0.0	0.0	
0.0	40.0	0.0	
50.0	40.0	0.0	
100.0	40.0	0.0	
0.0	80.0	0.0	
50.0	80.0	0.0	
100.0	80.0	0.0	
0.0	0.0	70.0	
50.0	0.0	70.0	
100.0	0.0	70.0	
0.0	40.0	70.0	
50.0	40.0	70.0	
100.0	40.0	70.0	
0.0	80.0	70.0	
50.0	80.0	70.0	
100.0	80.0	70.0	
0.0	0.0	140.0	
50.0	0.0	140.0	
100.0	0.0	140.0	
0.0	40.0	140.0	
50.0	40.0	140.0	
100.0	40.0	140.0	
0.0	80.0	140.0	
50.0	80.0	140.0	
100.0	80.0	140.0	

CELLS	8	72
 8	0	1	4	3	9	10	13	12	
 8	1	2	5	4	10	11	14	13	
 8	4	5	8	7	13	14	17	16	
 8	3	4	7	6	12	13	16	15	
 8	9	10	13	12	18	19	22	21	
 8	10	11	14	13	19	20	23	22	
 8	13	14	17	16	22	23	26	25	
 8	12	13	16	15	21	22	25	24	

CELL_TYPES	8
 12
 12
 12
 12
 12
 12
 12
 12

POINT_DATA	27
VECTORS	u 	float 
0.0	0.0	0.0
-0.0026839901	0.0	0.0
-0.0050386263	0.0	0.0
0.0	-0.0040281591	0.0
-0.0026891352	-0.0040519653	0.0
-0.0056144988	-0.0039162625	0.0
0.0	-0.0073960935	0.0
-0.0027933704	-0.0086583589	0.0
-0.0054828137	-0.0072766466	0.0
-0.0268750108	-0.0240891059	0.0044021891
-0.0026510046	-0.02317664	0.0168048343
0.0214946771	-0.0239284015	0.0044095387
-0.0268509482	-0.0040732469	0.0131563267
-0.0027209912	-0.0040378353	0.0256375428
0.0214671726	-0.0039384826	0.0131437656
-0.0269259668	0.0157887262	0.0044487774
-0.0027638767	0.0152490135	0.0168399552
0.0213705107	0.015924504	0.0044346114
-0.0633464426	-0.0539453222	0.0635545247
-0.0026597539	-0.0541342208	0.0767234129
0.0580638718	-0.0538188466	0.0635376547
-0.0635424158	-0.0041317312	0.0721071244
-0.0027046145	-0.004042722	0.0855097757
0.0581061374	-0.0039923756	0.0721061711
-0.0634836016	0.0457541631	0.063572384
-0.0027635903	0.0459797605	0.0767764836
0.0579685519	0.0458902967	0.0635648584

VECTORS	v 	float 
0.0	0.0	0.0
6.75562e-05	0.0	0.0
0.0001387679	0.0	0.0
0.0	5.44846e-05	0.0
7.41634e-05	6.00004e-05	0.0
0.0001451423	5.41804e-05	0.0
0.0	0.0001124573	0.0
6.5665e-05	0.0001173886	0.0
0.0001339297	0.0001122308	0.0
6.37673e-05	4.08312e-05	8.34692e-05
7.1624e-05	5.0245e-05	6.56703e-05
7.83701e-05	4.21703e-05	8.38586e-05
7.17065e-05	5.70717e-05	6.78344e-05
6.94537e-05	5.6255e-05	4.84302e-05
6.83799e-05	5.8231e-05	6.76155e-05
6.32714e-05	7.22321e-05	8.41481e-05
7.09003e-05	6.32156e-05	6.70701e-05
7.78437e-05	7.31122e-05	8.43973e-05
0.0001483213	0.0001382228	3.72681e-05
7.04391e-05	0.0001483808	1.95845e-05
-7.0285e-06	0.0001391657	3.81511e-05
0.0001648951	5.52928e-05	1.94502e-05
7.0763e-05	5.63608e-05	-1.2767e-06
-2.39198e-05	5.64482e-05	1.87335e-05
0.0001468636	-2.74307e-05	3.87512e-05
6.94946e-05	-3.59908e-05	1.998e-05
-7.731e-06	-2.60124e-05	3.94929e-05

VECTORS	a 	float 
0.0	0.0	0.0
-0.894085203	0.0	0.0
-1.784353082	0.0	0.0
0.0	-0.7221829085	0.0
-0.8845357985	-0.7124203743	0.0
-1.7722927268	-0.7220097637	0.0
0.0	-1.4386437614	0.0
-0.8966910967	-1.4291645651	0.0
-1.7911447026	-1.4382869368	0.0
0.0065782781	-0.0085888838	3.0695547373
-0.8881500251	0.002811023	3.0861005372
-1.7840587779	-0.0065784567	3.0700740081
0.0140624595	-0.7173034298	3.0772525921
-0.8912796063	-0.718707265	3.091174878
-1.7954253982	-0.7155301756	3.076784875
0.00578766	-1.4275577098	3.0703640518
-0.889326948	-1.4388415362	3.0877920716
-1.7851180131	-1.4260255794	3.0707203378
0.0044582578	0.0024670748	6.1577071458
-0.8898215514	0.0165291263	6.1909745656
-1.7837174824	0.0038829698	6.1587445287
0.0256940705	-0.7197908983	6.1763804709
-0.8894115685	-0.7181747677	6.2052447511
-1.8050063119	-0.7181511348	6.1753638251
0.0025951382	-1.4416921799	6.1594151211
-0.8911249933	-1.4533221576	6.191559161
-1.7847527069	-1.4398325674	6.1603531615

SCALARS	theta	float 1
LOOKUP_TABLE	default
299.069901103
299.1187920436
299.0728482936
299.0928452922
299.1370425338
299.0927942249
299.0735114047
299.1143254495
299.0733699998
305.0697147148
305.0966550677
305.069414291
305.0818453898
305.1096687631
305.0819629573
305.0687605483
305.0969657144
305.0687663712
311.9618615058
311.9759780611
311.9617690294
311.966073917
311.9802528385
311.966002315
311.9620901364
311.9760182745
311.9620982464

SCALARS	sig_11	float	1
LOOKUP_TABLE	default
14.6350244377
24.3070298846
15.4835760588
21.9458016426
30.4676791256
21.5404371943
14.9874563615
23.1526359631
15.056254953
-7.1057631051
-3.0689062367
-7.1666957918
-3.9048466174
0.2633956444
-3.8812541993
-7.3435960336
-3.190872082
-7.3561387586
-15.8521562624
-15.5763601047
-15.8343727599
-15.876728934
-15.5736341487
-15.8825858678
-15.8091824841
-15.5621235236
-15.8029416323

SCALARS	sig_22	float	1
LOOKUP_TABLE	default
9.3665870107
18.3712858917
10.0307817579
17.2812189083
24.6203961313
17.2751240826
10.9547150653
16.9193489858
11.0011365344
-6.078585945
-3.3167243362
-6.1285194809
-2.7685796809
0.1629532741
-2.7669072131
-6.2193760562
-3.2331725281
-6.2214786593
-11.4741282836
-11.2575553063
-11.4617436929
-11.6038715536
-11.3788261142
-11.5985692324
-11.4212180738
-11.2900959416
-11.4221681443

SCALARS	sig_33	float	1
LOOKUP_TABLE	default
23.9942156122
47.7461738802
24.4276741321
41.5101218221
64.4908551977
41.3600323748
24.6575657809
47.077338715
24.6622409863
-9.5552065312
2.0815957395
-9.6047611081
-1.2850416085
10.5305847599
-1.2827864048
-9.6347630066
2.1259122646
-9.6459718176
-45.5791293948
-44.4314580685
-45.6026460373
-45.9516738613
-44.6624204013
-45.9365627451
-45.5884309606
-44.4153726042
-45.569290036

SCALARS vonMises	float	1
LOOKUP_TABLE	default
63.1056069053
47.3747556777
62.6646252133
51.1444512502
33.6477709457
51.3683569176
62.5538564478
48.4074347046
62.6096852572
43.2236484726
39.4608409466
43.1402144135
41.1634217018
38.3715577066
41.2029861953
43.1174614084
39.6139645487
43.1252003992
46.3394616842
46.3263815662
46.4283275629
46.5281003091
46.4615686594
46.4946036724
46.4881339837
46.2654737849
46.4812242154
