# vtk DataFile Version 2.0
Results
ASCII
DATASET UNSTRUCTURED_GRID
POINTS         27           float
0.0	0.0	0.0	
50.0	0.0	0.0	
100.0	0.0	0.0	
0.0	40.0	0.0	
50.0	40.0	0.0	
100.0	40.0	0.0	
0.0	80.0	0.0	
50.0	80.0	0.0	
100.0	80.0	0.0	
0.0	0.0	70.0	
50.0	0.0	70.0	
100.0	0.0	70.0	
0.0	40.0	70.0	
50.0	40.0	70.0	
100.0	40.0	70.0	
0.0	80.0	70.0	
50.0	80.0	70.0	
100.0	80.0	70.0	
0.0	0.0	140.0	
50.0	0.0	140.0	
100.0	0.0	140.0	
0.0	40.0	140.0	
50.0	40.0	140.0	
100.0	40.0	140.0	
0.0	80.0	140.0	
50.0	80.0	140.0	
100.0	80.0	140.0	

CELLS	8	72
 8	0	1	4	3	9	10	13	12	
 8	1	2	5	4	10	11	14	13	
 8	4	5	8	7	13	14	17	16	
 8	3	4	7	6	12	13	16	15	
 8	9	10	13	12	18	19	22	21	
 8	10	11	14	13	19	20	23	22	
 8	13	14	17	16	22	23	26	25	
 8	12	13	16	15	21	22	25	24	

CELL_TYPES	8
 12
 12
 12
 12
 12
 12
 12
 12

POINT_DATA	27
VECTORS	u 	float 
0.0	0.0	0.0
0.0013852288	0.0	0.0
0.0030533796	0.0	0.0
0.0	-0.000566863	0.0
0.0013820641	-0.0005853379	0.0
0.0025612742	-0.0004710941	0.0
0.0	-0.000569537	0.0
0.001292095	-0.0016449037	0.0
0.0026737127	-0.0004678244	0.0
-0.0234585158	-0.0211102954	0.0092227709
0.0014141757	-0.0203357384	0.0198184798
0.0262197309	-0.020973093	0.0092293298
-0.0234431393	-0.0006039729	0.0167173406
0.0013541523	-0.0005741652	0.0273819536
0.0262014619	-0.0004888885	0.0167066347
-0.0235016675	0.0197707305	0.0092622431
0.0013177624	0.019313771	0.0198476446
0.0261133192	0.0198867355	0.0092502244
-0.0539636734	-0.0459698319	0.0654777762
0.0014064141	-0.0461383306	0.0764169666
0.0568081959	-0.0458618479	0.0654635566
-0.0541433264	-0.0006536027	0.0725243855
0.0013682331	-0.0005774768	0.0836648412
0.0568565876	-0.0005345647	0.0725237317
-0.0540806976	0.044724389	0.0654922768
0.0013177454	0.044924393	0.0764614272
0.0567267039	0.0448407351	0.0654860307

VECTORS	v 	float 
0.0	0.0	0.0
8.14342e-05	0.0	0.0
0.0001657579	0.0	0.0
0.0	5.41249e-05	0.0
8.73789e-05	6.06218e-05	0.0
0.0001722296	5.44404e-05	0.0
0.0	0.0001127891	0.0
7.96035e-05	0.0001177963	0.0
0.0001606581	0.0001135078	0.0
8.15754e-05	4.69205e-05	4.20743e-05
8.52491e-05	5.55699e-05	4.33826e-05
8.80562e-05	4.85896e-05	4.22757e-05
8.79835e-05	5.72696e-05	4.06076e-05
8.31432e-05	5.64736e-05	4.04486e-05
7.92318e-05	5.8736e-05	4.01921e-05
8.10058e-05	6.64813e-05	4.23989e-05
8.42243e-05	5.84872e-05	4.50528e-05
8.70095e-05	6.77152e-05	4.26075e-05
0.0001693274	0.0001286818	1.93255e-05
8.43125e-05	0.0001374978	2.14819e-05
-3.898e-07	0.0001299806	1.99128e-05
0.0001851987	5.54571e-05	1.75431e-05
8.4395e-05	5.66212e-05	1.66984e-05
-1.68377e-05	5.69342e-05	1.67689e-05
0.0001675935	-1.75848e-05	2.05916e-05
8.30813e-05	-2.4566e-05	2.20984e-05
-1.3649e-06	-1.59113e-05	2.11861e-05

VECTORS	a 	float 
0.0	0.0	0.0
-0.8921835827	0.0	0.0
-1.7796176477	0.0	0.0
0.0	-0.723117272	0.0
-0.8807316135	-0.7113610989	0.0
-1.7654716083	-0.7228545835	0.0
0.0	-1.4391316705	0.0
-0.8953030662	-1.4281198238	0.0
-1.7878770469	-1.4386046408	0.0
0.0109588595	-0.0095710958	3.0653980954
-0.8850486666	0.0041532797	3.0865762637
-1.7825117226	-0.0071059195	3.0660046884
0.0198256161	-0.7172491243	3.0756846995
-0.8888238707	-0.7189391065	3.0938598748
-1.7959971111	-0.7150845505	3.0751068977
0.0100186333	-1.4268288526	3.0663678767
-0.8865000092	-1.4403036619	3.0886524255
-1.7838359909	-1.4249664793	3.0667837251
0.0061525264	0.0028333462	6.1575092401
-0.8870547242	0.0190652939	6.1969659255
-1.7797741696	0.0045528259	6.1587266938
0.0312602021	-0.7202667813	6.179355989
-0.8865652974	-0.7183028215	6.2137475494
-1.80500924	-0.7182693438	6.1781339523
0.0038690278	-1.4429229664	6.1595857251
-0.8886348532	-1.4562310175	6.1976875931
-1.7810188063	-1.4406535082	6.1606917056

SCALARS	theta	float 1
LOOKUP_TABLE	default
299.9176507009
299.9619264154
299.9203751728
299.9390031249
299.9789956811
299.9388668134
299.9208619108
299.957822846
299.9207377476
305.1855387388
305.205260374
305.1852768894
305.1944170193
305.2149690663
305.194554033
305.1846270599
305.2054956374
305.1846221412
310.9203202093
310.9237476931
310.9202539188
310.9195612181
310.9230304706
310.9194991129
310.9205103058
310.9237580529
310.9205466401

SCALARS	sig_11	float	1
LOOKUP_TABLE	default
13.2845169643
21.5484056588
14.0127726096
19.541872109
26.8202450766
19.1924778619
13.5871933165
20.5616038472
13.6483059353
-6.7100318616
-3.2986094776
-6.7627203527
-4.0293990906
-0.5046307073
-4.0091143787
-6.9136494862
-3.4025099485
-6.9245178475
-12.8725209791
-12.7076015494
-12.8571680857
-13.0058288025
-12.8179838993
-13.0110117944
-12.8355891189
-12.6955809151
-12.8302527393

SCALARS	sig_22	float	1
LOOKUP_TABLE	default
8.6391358392
16.3322004767
9.2073090271
15.4106107375
21.6782997423
15.4037669482
9.9994907704
15.090234376
10.0392525896
-5.7012783495
-3.3722229936
-5.7445504245
-2.9374464267
-0.4624368178
-2.9361088396
-5.8216427977
-3.3000599316
-5.8236092145
-9.2429150858
-9.1115261808
-9.2321152609
-9.4879247074
-9.3497827916
-9.4834153809
-9.1973713815
-9.1393816239
-9.1981072527

SCALARS	sig_33	float	1
LOOKUP_TABLE	default
21.5727500585
41.8828040956
21.9435471298
36.5763601548
56.2293609266
36.447051556
22.1407727603
41.3116954889
22.146068918
-9.1108991028
0.6280303461
-9.1538966253
-2.2501057755
7.643784613
-2.2481324714
-9.1790839497
0.6666965797
-9.188583784
-37.328546335
-36.767709181
-37.3486201199
-38.0925381515
-37.4110754904
-38.0797184345
-37.3364651732
-36.7540825483
-37.3199563527

SCALARS vonMises	float	1
LOOKUP_TABLE	default
55.4451340477
41.6179366911
55.0648310589
44.8144575825
29.2470027925
45.0084827376
54.967088561
42.5032393624
55.01394154
36.8544942853
33.6330223118
36.7793886054
35.0955927565
32.6272372815
35.1319824366
36.7586039368
33.7759995428
36.7650860591
38.5096045043
38.7040352078
38.5858884173
38.8059123025
38.9529348055
38.7769989118
38.6365562106
38.6526392269
38.6308792554
