# vtk DataFile Version 2.0
Results
ASCII
DATASET UNSTRUCTURED_GRID
POINTS         27           float
0.0	0.0	0.0	
50.0	0.0	0.0	
100.0	0.0	0.0	
0.0	40.0	0.0	
50.0	40.0	0.0	
100.0	40.0	0.0	
0.0	80.0	0.0	
50.0	80.0	0.0	
100.0	80.0	0.0	
0.0	0.0	70.0	
50.0	0.0	70.0	
100.0	0.0	70.0	
0.0	40.0	70.0	
50.0	40.0	70.0	
100.0	40.0	70.0	
0.0	80.0	70.0	
50.0	80.0	70.0	
100.0	80.0	70.0	
0.0	0.0	140.0	
50.0	0.0	140.0	
100.0	0.0	140.0	
0.0	40.0	140.0	
50.0	40.0	140.0	
100.0	40.0	140.0	
0.0	80.0	140.0	
50.0	80.0	140.0	
100.0	80.0	140.0	

CELLS	8	72
 8	0	1	4	3	9	10	13	12	
 8	1	2	5	4	10	11	14	13	
 8	4	5	8	7	13	14	17	16	
 8	3	4	7	6	12	13	16	15	
 8	9	10	13	12	18	19	22	21	
 8	10	11	14	13	19	20	23	22	
 8	13	14	17	16	22	23	26	25	
 8	12	13	16	15	21	22	25	24	

CELL_TYPES	8
 12
 12
 12
 12
 12
 12
 12
 12

POINT_DATA	27
VECTORS	u 	float 
0.0	0.0	0.0
-0.0084942919	0.0	0.0
-0.0165950463	0.0	0.0
0.0	-0.008830139	0.0
-0.0085022118	-0.0088585835	0.0
-0.0172863952	-0.0086930693	0.0
0.0	-0.0168555406	0.0
-0.0086284522	-0.0183919842	0.0
-0.0171357533	-0.016706662	0.0
-0.0309622719	-0.0274130613	-0.0031063685
-0.0084547781	-0.0262833816	0.0120744706
0.0139586323	-0.0272161666	-0.003098084
-0.0309186625	-0.0088855735	0.0075481514
-0.008540026	-0.0088418243	0.0228165223
0.013907922	-0.0087205207	0.0075321446
-0.0310259545	0.0094545969	-0.0030482894
-0.0085930944	0.0087806859	0.0121188361
0.0138073731	0.0096207035	-0.0030657809
-0.0783157917	-0.0666298564	0.0598812519
-0.0084646961	-0.0668310403	0.0772409491
0.0614308638	-0.0664746137	0.059860032
-0.0785068726	-0.008958362	0.0713933226
-0.0085199926	-0.0088492676	0.0890308844
0.0614345352	-0.0087875029	0.0713914722
-0.0784839918	0.048801373	0.0599052554
-0.0085920873	0.0490482271	0.0773074459
0.0613139737	0.0489681291	0.0598952873

VECTORS	v 	float 
0.0	0.0	0.0
7.0004e-05	0.0	0.0
0.0001357677	0.0	0.0
0.0	6.44167e-05	0.0
6.28467e-05	5.687e-05	0.0
0.0001291678	6.37222e-05	0.0
0.0	0.000121615	0.0
7.23643e-05	0.0001194411	0.0
0.0001427466	0.0001205308	0.0
3.0616e-05	3.66681e-05	0.0001184747
6.53231e-05	2.40414e-05	6.27019e-05
0.0001012571	3.43411e-05	0.0001181045
2.42465e-05	6.07887e-05	8.33421e-05
6.79945e-05	6.16706e-05	2.91925e-05
0.0001105633	5.87794e-05	8.38431e-05
3.14665e-05	8.67429e-05	0.0001176762
6.67988e-05	9.755e-05	6.11184e-05
0.0001027078	8.49604e-05	0.000117482
0.0002071032	0.0001783257	6.10014e-05
6.65203e-05	0.0001687763	-3.21006e-05
-7.45419e-05	0.0001765035	6.03528e-05
0.0001904247	6.30493e-05	-2.3664e-06
6.64985e-05	6.13682e-05	-9.31392e-05
-5.68899e-05	6.09873e-05	-1.539e-06
0.0002093757	-5.27898e-05	5.95142e-05
6.81594e-05	-4.53827e-05	-3.28353e-05
-7.31785e-05	-5.50274e-05	5.8896e-05

VECTORS	a 	float 
0.0	0.0	0.0
0.8945728498	0.0	0.0
1.7866238475	0.0	0.0
0.0	0.7205243131	0.0
0.887245851	0.7127394631	0.0
1.7766238409	0.7203826165	0.0
0.0	1.4370159125	0.0
0.896469213	1.428505274	0.0
1.79148943	1.4367331636	0.0
-0.0034827931	0.0061153293	-3.0731588208
0.8900318363	-0.001878834	-3.0841429073
1.7843444894	0.0046718095	-3.0735624026
-0.0087108703	0.716565811	-3.0779995716
0.8923843799	0.7177087966	-3.0867796492
1.7926659635	0.7152876062	-3.0776226914
-0.0028977583	1.4280993927	-3.0737473681
0.8908763262	1.4363300558	-3.0853378237
1.7851072255	1.4269877734	-3.0740326531
-0.0059481717	-0.0030300765	-6.1580609441
0.8913055764	-0.0141791756	-6.1830795621
1.7883137968	-0.0040358086	-6.1588405844
-0.0221191563	0.7184272647	-6.1725413628
0.8909651191	0.717226733	-6.1939627638
1.8043703131	0.7172672051	-6.1717686485
-0.0046453549	1.4396443346	-6.1593047287
0.8922246751	1.4489286154	-6.18347169
1.7890453332	1.438333453	-6.1600084171

SCALARS	theta	float 1
LOOKUP_TABLE	default
297.9111077991
297.9633661863
297.914200904
297.9340562432
297.9810824016
297.9341524306
297.915294479
297.9585033116
297.9152574012
304.7007212432
304.7469429809
304.7003101957
304.7220239504
304.7692464318
304.7220968807
304.6997428246
304.7474701173
304.6997341164
313.7693822076
313.8211827051
313.7693036301
313.7925621235
313.8444171755
313.792466556
313.7697058768
313.8212204533
313.7696807975

SCALARS	sig_11	float	1
LOOKUP_TABLE	default
14.8414488639
26.7445884952
15.8716005303
23.7915553304
34.2907187353
23.3053813719
15.2710595369
25.3248006236
15.3467933648
-6.1703750344
-1.0486976249
-6.2431950867
-2.0143678442
3.2658522867
-1.9858057403
-6.46140082
-1.1987419452
-6.4761879763
-22.1944148005
-21.5710604266
-22.1732460962
-21.7768881993
-21.1190769419
-21.7837742369
-22.1416194405
-21.5532030639
-22.1341130175

SCALARS	sig_22	float	1
LOOKUP_TABLE	default
8.9423221523
20.0250469585
9.757845231
18.6388425531
27.6820993235
18.6373538038
10.8829363344
18.2450718587
10.941794436
-5.4320176208
-1.9076169751
-5.491272427
-1.107511643
2.6228025435
-1.1048266466
-5.6048309413
-1.8068236525
-5.6066623947
-16.3551245085
-15.8700910816
-16.3406443742
-15.9890952688
-15.4924306123
-15.982856781
-16.290707431
-15.9098102627
-16.2921073641

SCALARS	sig_33	float	1
LOOKUP_TABLE	default
25.0516037067
54.1984224156
25.5835952907
46.4333985795
74.6249101806
46.2522847935
25.8647514855
53.3737383977
25.8667880125
-7.9600416701
7.1707165754
-8.0190214793
3.0276480676
18.3719975545
3.0303997684
-8.0573390368
7.2236437689
-8.071289022
-62.3873209353
-59.2864894833
-62.4161161878
-61.0644990297
-57.7898836902
-61.0461912799
-62.3977264243
-59.2667936082
-62.3747531223

SCALARS vonMises	float	1
LOOKUP_TABLE	default
71.1880348507
53.5010907843
70.6582731118
58.1876689578
39.2835957689
58.4548647313
70.5354070547
54.7673826048
70.6070667215
53.3290021911
48.9742866977
53.2422134734
50.9119766888
47.9088211604
50.9511069902
53.2178736397
49.1126897993
53.2272062353
61.0300538709
60.3645079044
61.1374232164
60.815820605
60.1004270004
60.7764361198
61.2109035086
60.2893178499
61.2017835169
