# vtk DataFile Version 2.0
Results
ASCII
DATASET UNSTRUCTURED_GRID
POINTS         27           float
0.0	0.0	0.0	
50.0	0.0	0.0	
100.0	0.0	0.0	
0.0	40.0	0.0	
50.0	40.0	0.0	
100.0	40.0	0.0	
0.0	80.0	0.0	
50.0	80.0	0.0	
100.0	80.0	0.0	
0.0	0.0	70.0	
50.0	0.0	70.0	
100.0	0.0	70.0	
0.0	40.0	70.0	
50.0	40.0	70.0	
100.0	40.0	70.0	
0.0	80.0	70.0	
50.0	80.0	70.0	
100.0	80.0	70.0	
0.0	0.0	140.0	
50.0	0.0	140.0	
100.0	0.0	140.0	
0.0	40.0	140.0	
50.0	40.0	140.0	
100.0	40.0	140.0	
0.0	80.0	140.0	
50.0	80.0	140.0	
100.0	80.0	140.0	

CELLS	8	72
 8	0	1	4	3	9	10	13	12	
 8	1	2	5	4	10	11	14	13	
 8	4	5	8	7	13	14	17	16	
 8	3	4	7	6	12	13	16	15	
 8	9	10	13	12	18	19	22	21	
 8	10	11	14	13	19	20	23	22	
 8	13	14	17	16	22	23	26	25	
 8	12	13	16	15	21	22	25	24	

CELL_TYPES	8
 12
 12
 12
 12
 12
 12
 12
 12

POINT_DATA	27
VECTORS	u 	float 
0.0	0.0	0.0
-0.0034728458	0.0	0.0
-0.0066076611	0.0	0.0
0.0	-0.0046922983	0.0
-0.0034785598	-0.0047171172	0.0
-0.0071995413	-0.0045772701	0.0
0.0	-0.0087059324	0.0
-0.0035853284	-0.0100040601	0.0
-0.0070641254	-0.0085830167	0.0
-0.0274998319	-0.0246219017	0.0034408345
-0.0034391334	-0.023682433	0.0161997859
0.02054113	-0.0244566197	0.0034483606
-0.0274734105	-0.0047388913	0.0124421143
-0.0035109894	-0.0047023247	0.0252811655
0.0205111464	-0.004600286	0.0124291857
-0.027552385	0.0149859596	0.0034888841
-0.0035552348	0.0144300018	0.016235949
0.0204135093	0.0151256108	0.0034743056
-0.065240103	-0.0555523251	0.0631404596
-0.0034479667	-0.0557442916	0.0767853867
0.0583820996	-0.0554220534	0.0631230874
-0.0654376287	-0.0047991205	0.0720214125
-0.0034942478	-0.0047075543	0.0859061034
0.0584213753	-0.0046556236	0.0720203979
-0.0653813422	0.0460284356	0.0631590102
-0.0035549475	0.0462582271	0.0768400852
0.0582838767	0.0461685941	0.0631512159

VECTORS	v 	float 
0.0	0.0	0.0
8.47348e-05	0.0	0.0
0.0001619795	0.0	0.0
0.0	6.68606e-05	0.0
7.76757e-05	6.42331e-05	0.0
0.0001615202	6.70757e-05	0.0
0.0	0.0001253208	0.0
8.83159e-05	0.000134972	0.0
0.0001715648	0.0001257609	0.0
5.69727e-05	6.01457e-05	8.86448e-05
8.03279e-05	4.02207e-05	3.38996e-05
0.0001057953	5.7547e-05	8.82455e-05
4.64241e-05	6.64927e-05	5.67559e-05
8.32563e-05	6.6609e-05	2.3047e-06
0.0001180557	6.42294e-05	5.67012e-05
5.79538e-05	7.51685e-05	8.75692e-05
8.17805e-05	9.09512e-05	3.15415e-05
0.0001069187	7.32384e-05	8.74176e-05
0.0002187548	0.0001609181	4.82668e-05
8.1812e-05	0.000150571	-3.54977e-05
-5.59033e-05	0.0001591252	4.71787e-05
0.0002034654	6.87096e-05	1.7182e-06
8.174e-05	6.71334e-05	-8.10959e-05
-3.91129e-05	6.65632e-05	2.4836e-06
0.0002213274	-2.42243e-05	4.6363e-05
8.35463e-05	-1.54757e-05	-3.66544e-05
-5.45221e-05	-2.66997e-05	4.53309e-05

VECTORS	a 	float 
0.0	0.0	0.0
0.893887425	0.0	0.0
1.7841891671	0.0	0.0
0.0	0.7219192654	0.0
0.8846661453	0.7124110692	0.0
1.7723583646	0.7217482543	0.0
0.0	1.4383965738	0.0
0.8963786167	1.4289284379	0.0
1.7906643094	1.4380486355	0.0
-0.0062897542	0.0081857562	-3.0698636003
0.8881570306	-0.0026172344	-3.0855099429
1.7837177623	0.0062659417	-3.0703667343
-0.0134354236	0.7171491856	-3.0771330243
0.8911671523	0.718518736	-3.0902046048
1.7946406075	0.7154535999	-3.0766766674
-0.0055301519	1.4275747488	-3.070636634
0.8892822252	1.4383414107	-3.0871178527
1.7847333134	1.4261062075	-3.0709839792
-0.0054404605	-0.0027636161	-6.1579365162
0.8897656108	-0.0163990793	-6.1897681048
1.7846132815	-0.0041223606	-6.1589358636
-0.0259849863	0.7195415092	-6.1759715071
0.8893688956	0.7179880252	-6.2034908138
1.8051809671	0.7179713565	-6.1749899345
-0.0036627422	1.4415108236	-6.1595697904
0.8910148929	1.4527917843	-6.1903185852
1.7856083966	1.439733264	-6.1604726169

SCALARS	theta	float 1
LOOKUP_TABLE	default
298.9077989424
298.9577325851
298.9108241004
298.9311519336
298.976211658
298.9310943148
298.9115657326
298.9531267229
298.9114435496
305.037529334
305.0663521094
305.0372066067
305.050567633
305.080320389
305.0506861867
305.0365444377
305.0667036979
305.0365469496
312.1788296672
312.1961444666
312.1787403911
312.1845884075
312.2019609479
312.184511614
312.1790826804
312.1961771017
312.1790877935

SCALARS	sig_11	float	1
LOOKUP_TABLE	default
14.8208167059
24.7857869606
15.6933261967
22.349484632
31.1308353285
21.9337992315
15.1842569287
23.5965099499
15.2534986904
-7.1101714471
-2.9393697786
-7.1726736864
-3.7936522451
0.5120684535
-3.7694902583
-7.3551109688
-3.0651202463
-7.3679001774
-16.5528475441
-16.2476061316
-16.5346678677
-16.5421950609
-16.2087048783
-16.5481067464
-16.5086130076
-16.232943303
-16.5022700816

SCALARS	sig_22	float	1
LOOKUP_TABLE	default
9.4380632751
18.7175185429
10.1221778699
17.5884158821
25.1531064163
17.5834725494
11.0732963963
17.2221699149
11.1208831734
-6.0952618658
-3.2383703864
-6.1464478673
-2.6643640344
0.3669153877
-2.6626365173
-6.2402662131
-3.1525622254
-6.2422885931
-12.0042080963
-11.7642938688
-11.9916196532
-12.0958530213
-11.8470271806
-12.0903462555
-11.9497907352
-11.7977781988
-11.950897106

SCALARS	sig_33	float	1
LOOKUP_TABLE	default
24.3400455737
48.7947404062
24.786290737
42.3650611968
66.0246506741
42.2113197122
25.0235940409
48.1052584149
25.0275269824
-9.5364625846
2.510252958
-9.587332467
-0.9548907001
11.2753196131
-0.9526668135
-9.6184492096
2.5556648257
-9.6299814684
-47.4244516105
-46.111875842
-47.4487585651
-47.6675500105
-46.2091312955
-47.6518686387
-47.4338999034
-46.0953337176
-47.4143504585

SCALARS vonMises	float	1
LOOKUP_TABLE	default
64.4466861209
48.385674385
63.9940757911
52.2686639651
34.4644809968
52.4975482474
63.8807446733
49.4471650201
63.9384808783
44.4921425979
40.645696843
44.4076049858
42.3835214279
39.5580809301
42.4232625967
44.3842201548
40.799366369
44.3923642186
48.0016133771
47.9504113554
48.0928028079
48.1666641825
48.0619415704
48.1324887101
48.1542700399
47.8879163098
48.1471419153
