# vtk DataFile Version 2.0
Results
ASCII
DATASET UNSTRUCTURED_GRID
POINTS         27           float
0.0	0.0	0.0	
50.0	0.0	0.0	
100.0	0.0	0.0	
0.0	40.0	0.0	
50.0	40.0	0.0	
100.0	40.0	0.0	
0.0	80.0	0.0	
50.0	80.0	0.0	
100.0	80.0	0.0	
0.0	0.0	70.0	
50.0	0.0	70.0	
100.0	0.0	70.0	
0.0	40.0	70.0	
50.0	40.0	70.0	
100.0	40.0	70.0	
0.0	80.0	70.0	
50.0	80.0	70.0	
100.0	80.0	70.0	
0.0	0.0	140.0	
50.0	0.0	140.0	
100.0	0.0	140.0	
0.0	40.0	140.0	
50.0	40.0	140.0	
100.0	40.0	140.0	
0.0	80.0	140.0	
50.0	80.0	140.0	
100.0	80.0	140.0	

CELLS	8	72
 8	0	1	4	3	9	10	13	12	
 8	1	2	5	4	10	11	14	13	
 8	4	5	8	7	13	14	17	16	
 8	3	4	7	6	12	13	16	15	
 8	9	10	13	12	18	19	22	21	
 8	10	11	14	13	19	20	23	22	
 8	13	14	17	16	22	23	26	25	
 8	12	13	16	15	21	22	25	24	

CELL_TYPES	8
 12
 12
 12
 12
 12
 12
 12
 12

POINT_DATA	27
VECTORS	u 	float 
0.0	0.0	0.0
-0.0015579306	0.0	0.0
-0.0027997949	0.0	0.0
0.0	-0.0030753795	0.0
-0.0015634362	-0.0030982791	0.0
-0.0033535086	-0.0029680098	0.0
0.0	-0.0055180636	0.0
-0.0016624353	-0.0067280789	0.0
-0.0032251598	-0.0054036351	0.0
-0.0259593153	-0.0232987489	0.0057613953
-0.0015266346	-0.0224258806	0.0176538157
0.0228309508	-0.0231448472	0.00576854
-0.025937516	-0.003118456	0.0141619337
-0.0015935232	-0.0030845628	0.0261301682
0.0228062989	-0.0029894043	0.0141498969
-0.0260079743	0.0169143384	0.0058059433
-0.0016347718	0.0163985794	0.0176870075
0.0227118558	0.0170443952	0.0057923676
-0.0606934619	-0.0516909053	0.0641236087
-0.0015349544	-0.0518745267	0.0766347411
0.0576590021	-0.0515697578	0.0641074266
-0.0608854357	-0.0031742378	0.0722285206
-0.001577964	-0.0030889687	0.0849642759
0.0577035562	-0.0030407384	0.0722277309
-0.0608247876	0.0454117405	0.0641403765
-0.0016343999	0.0456304295	0.0766852436
0.057567671	0.0455421546	0.0641331305

VECTORS	v 	float 
0.0	0.0	0.0
7.52335e-05	0.0	0.0
0.0001543477	0.0	0.0
0.0	5.42494e-05	0.0
8.39347e-05	6.27574e-05	0.0
0.0001645017	5.43306e-05	0.0
0.0	0.0001135477	0.0
7.29641e-05	0.0001216967	0.0
0.0001482552	0.0001139235	0.0
7.39885e-05	4.39409e-05	6.42492e-05
8.06716e-05	5.28307e-05	5.65404e-05
8.61911e-05	4.57889e-05	6.45829e-05
7.93253e-05	5.84385e-05	5.52307e-05
7.78432e-05	5.72487e-05	4.61369e-05
7.75935e-05	6.00543e-05	5.48321e-05
7.33346e-05	7.15636e-05	6.48342e-05
7.95919e-05	6.29462e-05	5.83758e-05
8.5198e-05	7.28869e-05	6.51182e-05
0.0001658652	0.0001378387	2.93368e-05
7.92257e-05	0.0001469834	2.13736e-05
-7.0013e-06	0.0001391849	3.01977e-05
0.0001811603	5.61405e-05	1.77152e-05
7.95552e-05	5.75667e-05	6.845e-06
-2.26035e-05	5.7716e-05	1.68025e-05
0.0001639583	-2.5306e-05	3.09646e-05
7.79242e-05	-3.22462e-05	2.19803e-05
-8.001e-06	-2.34729e-05	3.17886e-05

VECTORS	a 	float 
0.0	0.0	0.0
-0.894150293	0.0	0.0
-1.7841708204	0.0	0.0
0.0	-0.7225296104	0.0
-0.8841173777	-0.712358308	0.0
-1.7717190286	-0.7223485363	0.0
0.0	-1.4389420568	0.0
-0.8969154024	-1.4293469718	0.0
-1.7914038916	-1.4385651437	0.0
0.0071934216	-0.009095371	3.068910959
-0.8879129936	0.0031037583	3.0867492891
-1.7842901626	-0.0069569077	3.0694535524
0.0151385593	-0.7174656961	3.0772531668
-0.8912152978	-0.7189260191	3.0923903062
-1.7962816685	-0.7155824528	3.0767660798
0.0063594468	-1.4274836463	3.0697699513
-0.8891638412	-1.4394725975	3.0885573742
-1.785414075	-1.4258606248	3.0701400352
0.003575957	0.002189262	6.1574473446
-0.8896756104	0.0168579137	6.1926845645
-1.7825089954	0.0036864285	6.1585383404
0.02582339	-0.7200913359	6.1770310661
-0.8892454333	-0.7183845962	6.207721348
-1.8048451791	-0.7183533091	6.1759625656
0.0015934982	-1.4419869979	6.1592606074
-0.8910552397	-1.4541071336	6.1933154696
-1.7836007988	-1.4400122482	6.1602484332

SCALARS	theta	float 1
LOOKUP_TABLE	default
299.3023056212
299.3503688987
299.3052577643
299.3251470365
299.3684974247
299.3250220813
299.3058889882
299.3459032552
299.3057836625
305.1092493781
305.1338604657
305.1089449817
305.1203461412
305.1458717787
305.1204820026
305.1082778743
305.1341716423
305.108271928
311.6619072142
311.6722603893
311.6618322592
311.664333222
311.6747272412
311.6642558826
311.6621415189
311.6722776958
311.6621662712

SCALARS	sig_11	float	1
LOOKUP_TABLE	default
14.3253315961
23.6118643147
15.1418103581
21.3501469313
29.5299136367
20.9594933448
14.6650948144
22.5019455302
14.7321816735
-7.0533829007
-3.1928969006
-7.1121529197
-3.9993925895
-0.0122122999
-3.9766837626
-7.2820311497
-3.3098635616
-7.2941299989
-14.9680241243
-14.7290844805
-14.9508295699
-15.0316193083
-14.7666974351
-15.037336138
-14.9264883665
-14.7155531989
-14.9204546395

SCALARS	sig_22	float	1
LOOKUP_TABLE	default
9.2154984925
17.8635008135
9.8540238538
16.8178118249
23.8644526507
16.8110184437
10.7425250244
16.4678750507
10.7873795666
-6.0196702903
-3.3792011592
-6.0678729472
-2.8657594221
-0.0618844104
-2.8642195905
-6.1549973901
-3.2986348282
-6.1570895029
-10.806260322
-10.6173992624
-10.7941968187
-10.9795900709
-10.7828141417
-10.9745315105
-10.755238898
-10.6487424015
-10.7560459879

SCALARS	sig_33	float	1
LOOKUP_TABLE	default
23.4016529294
46.1992579241
23.8186254889
40.2231283742
62.2794311634
40.0782584154
24.0400199633
45.5561514971
24.0452075274
-9.5174798335
1.5707104239
-9.565308483
-1.6588876514
9.601835623
-1.656768616
-9.5940052412
1.6136256726
-9.6047025857
-43.1168311333
-42.1721225651
-43.1392531098
-43.6396832862
-42.5594127754
-43.6252805691
-43.1254753413
-42.1569478692
-43.10694843

SCALARS vonMises	float	1
LOOKUP_TABLE	default
61.0842886337
45.8557812501
60.6607158911
49.4605226543
32.4513736588
49.6743562605
60.5528326952
46.8458315521
60.6072124328
41.4171234577
37.8135112751
41.3360261232
39.444217092
36.7464508827
39.482551949
41.3133700522
37.9646931114
41.3213225417
44.0275962779
44.1025293549
44.113010564
44.2613349267
44.2849024134
44.2290750844
44.1701127557
44.0445180107
44.1635732024
