# vtk DataFile Version 2.0
Results
ASCII
DATASET UNSTRUCTURED_GRID
POINTS         27           float
0.0	0.0	0.0	
50.0	0.0	0.0	
100.0	0.0	0.0	
0.0	40.0	0.0	
50.0	40.0	0.0	
100.0	40.0	0.0	
0.0	80.0	0.0	
50.0	80.0	0.0	
100.0	80.0	0.0	
0.0	0.0	70.0	
50.0	0.0	70.0	
100.0	0.0	70.0	
0.0	40.0	70.0	
50.0	40.0	70.0	
100.0	40.0	70.0	
0.0	80.0	70.0	
50.0	80.0	70.0	
100.0	80.0	70.0	
0.0	0.0	140.0	
50.0	0.0	140.0	
100.0	0.0	140.0	
0.0	40.0	140.0	
50.0	40.0	140.0	
100.0	40.0	140.0	
0.0	80.0	140.0	
50.0	80.0	140.0	
100.0	80.0	140.0	

CELLS	8	72
 8	0	1	4	3	9	10	13	12	
 8	1	2	5	4	10	11	14	13	
 8	4	5	8	7	13	14	17	16	
 8	3	4	7	6	12	13	16	15	
 8	9	10	13	12	18	19	22	21	
 8	10	11	14	13	19	20	23	22	
 8	13	14	17	16	22	23	26	25	
 8	12	13	16	15	21	22	25	24	

CELL_TYPES	8
 12
 12
 12
 12
 12
 12
 12
 12

POINT_DATA	27
VECTORS	u 	float 
0.0	0.0	0.0
-0.0140688446	0.0	0.0
-0.0276894971	0.0	0.0
0.0	-0.0128562307	0.0
-0.0140855333	-0.012889769	0.0
-0.0284900595	-0.0126851315	0.0
0.0	-0.0247314921	0.0
-0.0142369753	-0.0266001054	0.0
-0.0283505102	-0.0245365627	0.0
-0.0316133691	-0.0267855279	-0.0129517284
-0.0140238547	-0.0253201699	0.005777531
0.0034569632	-0.0265406003	-0.0129442172
-0.0315304781	-0.0129258391	-1.96839e-05
-0.014128015	-0.0128699038	0.0187868864
0.0033522696	-0.0127202856	-4.16762e-05
-0.0316965838	0.0007060971	-0.0128781471
-0.0141960491	-0.0001980728	0.0058354337
0.003270638	0.0009122964	-0.0129007535
-0.0991897604	-0.0842108418	0.0524960282
-0.0140334796	-0.0843171605	0.0780870194
0.0711747125	-0.0840173823	0.0524680279
-0.0992893366	-0.0130175826	0.070230233
-0.0141033362	-0.012882275	0.0961337356
0.0710462034	-0.0128051084	0.0702256221
-0.0993980952	0.0582832072	0.0525302257
-0.0141920722	0.058449404	0.0781719246
0.0710288183	0.0584904615	0.0525155375

VECTORS	v 	float 
0.0	0.0	0.0
4.80533e-05	0.0	0.0
0.0001000831	0.0	0.0
0.0	1.91669e-05	0.0
5.68368e-05	2.56279e-05	0.0
0.0001102473	1.87897e-05	0.0
0.0	4.18513e-05	0.0
4.61115e-05	4.8697e-05	0.0
9.51484e-05	4.13033e-05	0.0
-3.76721e-05	-7.32669e-05	0.0001035017
5.33111e-05	-6.531e-05	8.31214e-05
0.0001431427	-7.20775e-05	0.0001038797
-2.90967e-05	2.2259e-05	8.90817e-05
5.0731e-05	2.12581e-05	6.7989e-05
0.000131764	2.33283e-05	8.89508e-05
-3.80359e-05	0.000116791	0.0001039323
5.26995e-05	0.0001086782	8.46371e-05
0.0001426382	0.0001176588	0.0001042196
0.0002727212	0.0002263686	0.0001089425
5.17487e-05	0.0002370603	1.4604e-05
-0.0001688565	0.00022713	0.0001098769
0.0002924886	2.04859e-05	2.6788e-05
5.23059e-05	2.14499e-05	-7.01065e-05
-0.0001883754	2.14221e-05	2.60857e-05
0.0002715135	-0.0001852426	0.0001101852
5.09711e-05	-0.0001943939	1.51215e-05
-0.0001694117	-0.0001840885	0.0001110347

VECTORS	a 	float 
0.0	0.0	0.0
-0.8963052841	0.0	0.0
-1.7913347269	0.0	0.0
0.0	-0.7187561519	0.0
-0.891435946	-0.713365943	0.0
-1.7839522234	-0.718662685	0.0
0.0	-1.4351742922	0.0
-0.8974867989	-1.4284600291	0.0
-1.7942708551	-1.4349890587	0.0
-0.0010042985	-0.0036946939	3.0775369555
-0.8933001942	0.0012196249	3.0832899842
-1.7860197735	-0.0028201177	3.0778097416
0.0019852297	-0.7159625142	3.0795768516
-0.8948186288	-0.7167665798	3.0836354445
-1.7911828692	-0.7151830953	3.0793115181
-0.0013850644	-1.4288606519	3.0778952043
-0.8938087675	-1.4342029818	3.0840005818
-1.7864741451	-1.4281763796	3.0780967001
0.0046199464	0.0026797555	6.1567567746
-0.894132724	0.0109417571	6.1749409078
-1.7927703754	0.0032900241	6.1572594847
0.0153328294	-0.7171534101	6.1677228176
-0.8938905345	-0.7163922261	6.1832803706
-1.8032744	-0.716457146	6.1672170042
0.0038548734	-1.4368561853	6.157515091
-0.8946843674	-1.4438830416	6.1751589196
-1.793213873	-1.4360753778	6.1579693299

SCALARS	theta	float 1
LOOKUP_TABLE	default
297.014956136
297.0540529201
297.0169688855
297.0265046206
297.0606557148
297.027433888
297.0194620423
297.0494218299
297.0192943456
303.5080245939
303.6026829844
303.5074755903
303.5571673474
303.6526499997
303.556955579
303.507251259
303.6035881841
303.5072552401
316.8390825014
317.0084684886
316.8391291443
316.9311798268
317.1007040568
316.9311814935
316.8394824731
317.0084294356
316.8393945937

SCALARS	sig_11	float	1
LOOKUP_TABLE	default
7.8586140225
22.7431595788
9.0847312054
18.8594787143
32.0480117067
18.3086399698
8.3780315958
20.9834360762
8.4344713648
0.9182538371
7.9709231023
0.8349061209
6.872402624
14.1111925718
6.9053973969
0.5606623458
7.7849455595
0.5455513323
-36.9704774326
-35.0400749846
-36.9477087306
-34.9173353863
-32.9418893662
-34.9250136864
-36.9048091886
-35.0166481901
-36.8973770241

SCALARS	sig_22	float	1
LOOKUP_TABLE	default
2.4701721201
16.3374797966
3.4829983306
14.3968827201
25.762525618
14.4275224619
4.8437513033
14.1465313966
4.9278216199
0.0922270004
5.0048430674
0.0262766372
6.3407620711
11.4998204024
6.3464860239
-0.1210008131
5.1257915257
-0.1192447481
-28.0647886388
-26.6077039947
-28.0505013005
-25.8484167054
-24.3740624058
-25.8419065689
-27.9859007011
-26.6555473542
-27.9897938615

SCALARS	sig_33	float	1
LOOKUP_TABLE	default
16.2051671903
52.4030119772
16.8587264803
42.3213345918
77.3187568595
42.1136768435
17.205366301
51.3773951403
17.1961733506
2.8115194155
24.5978153376
2.7438137723
19.2933779585
41.3241891152
19.2960034741
2.6922841667
24.6602020465
2.6750892133
-99.432637634
-89.6758825487
-99.4699634286
-91.7602415698
-81.7893890445
-91.7383051981
-99.4423292549
-89.6507891048
-99.4170757915

SCALARS vonMises	float	1
LOOKUP_TABLE	default
67.4347058714
51.1277941309
66.831384317
57.0550152874
42.3373506015
57.3556510789
66.7502447465
52.7044201196
66.8534141283
68.7296273042
64.9158799629
68.710989915
66.3170970376
63.1638745071
66.3284807724
68.7103889139
64.8863420637
68.7212756489
90.0476336029
86.9378428572
90.1743718823
88.2528295424
85.2025854364
88.2103280458
90.26633335
86.8433637097
90.2523458192
