# vtk DataFile Version 2.0
Results
ASCII
DATASET UNSTRUCTURED_GRID
POINTS         27           float
0.0	0.0	0.0	
50.0	0.0	0.0	
100.0	0.0	0.0	
0.0	40.0	0.0	
50.0	40.0	0.0	
100.0	40.0	0.0	
0.0	80.0	0.0	
50.0	80.0	0.0	
100.0	80.0	0.0	
0.0	0.0	70.0	
50.0	0.0	70.0	
100.0	0.0	70.0	
0.0	40.0	70.0	
50.0	40.0	70.0	
100.0	40.0	70.0	
0.0	80.0	70.0	
50.0	80.0	70.0	
100.0	80.0	70.0	
0.0	0.0	140.0	
50.0	0.0	140.0	
100.0	0.0	140.0	
0.0	40.0	140.0	
50.0	40.0	140.0	
100.0	40.0	140.0	
0.0	80.0	140.0	
50.0	80.0	140.0	
100.0	80.0	140.0	

CELLS	8	72
 8	0	1	4	3	9	10	13	12	
 8	1	2	5	4	10	11	14	13	
 8	4	5	8	7	13	14	17	16	
 8	3	4	7	6	12	13	16	15	
 8	9	10	13	12	18	19	22	21	
 8	10	11	14	13	19	20	23	22	
 8	13	14	17	16	22	23	26	25	
 8	12	13	16	15	21	22	25	24	

CELL_TYPES	8
 12
 12
 12
 12
 12
 12
 12
 12

POINT_DATA	27
VECTORS	u 	float 
0.0	0.0	0.0
-0.003980368	0.0	0.0
-0.0076170097	0.0	0.0
0.0	-0.0051185994	0.0
-0.0039859946	-0.0051431113	0.0
-0.0082185039	-0.0050013076	0.0
0.0	-0.0095459335	0.0
-0.0040948668	-0.0108665932	0.0
-0.0080817343	-0.0094203311	0.0
-0.0278927973	-0.0249548438	0.0028131712
-0.0039458658	-0.0239975465	0.0158064267
0.0199192582	-0.0247864204	0.0028207802
-0.0278656904	-0.0051656423	0.0119762276
-0.0040191065	-0.0051284961	0.0250504792
0.0198881917	-0.005024425	0.0119629323
-0.0279464007	0.0144624823	0.0028621731
-0.0040641867	0.0138956575	0.0158433834
0.0197892375	0.0146047281	0.0028473124
-0.0664744807	-0.0566003349	0.0628616965
-0.0039548342	-0.05679436	0.0768269659
0.0586034189	-0.0564675957	0.0628438976
-0.0666729779	-0.0052271742	0.071964165
-0.0040019744	-0.0051338308	0.0861731913
0.0586407688	-0.0050809662	0.071963071
-0.0666184184	0.0462217142	0.0628807636
-0.0040638318	0.0464544074	0.0768827886
0.0585033712	0.0463645154	0.0628727234

VECTORS	v 	float 
0.0	0.0	0.0
6.48258e-05	0.0	0.0
0.0001343703	0.0	0.0
0.0	5.52922e-05	0.0
7.15373e-05	5.8954e-05	0.0
0.0001390274	5.46369e-05	0.0
0.0	0.0001145831	0.0
6.23372e-05	0.0001150011	0.0
0.0001283505	0.0001137259	0.0
5.88295e-05	3.69047e-05	8.91209e-05
6.87458e-05	4.87669e-05	7.33099e-05
7.72546e-05	3.82373e-05	8.9503e-05
6.81427e-05	5.65947e-05	7.35596e-05
6.64322e-05	5.59551e-05	5.67672e-05
6.61669e-05	5.77646e-05	7.35765e-05
5.8366e-05	7.50342e-05	8.98555e-05
6.81392e-05	6.41782e-05	7.50619e-05
7.69479e-05	7.59192e-05	9.00971e-05
0.0001451719	0.000142054	3.6605e-05
6.7276e-05	0.0001523209	2.13171e-05
-1.01421e-05	0.0001425868	3.76791e-05
0.0001614089	5.49118e-05	1.74391e-05
6.78293e-05	5.58137e-05	-4.065e-07
-2.6363e-05	5.56832e-05	1.67213e-05
0.0001440619	-3.19683e-05	3.81913e-05
6.67146e-05	-4.10621e-05	2.19435e-05
-1.04471e-05	-3.08996e-05	3.91374e-05

VECTORS	a 	float 
0.0	0.0	0.0
-0.8936522746	0.0	0.0
-1.7838813655	0.0	0.0
0.0	-0.7217469513	0.0
-0.8846316072	-0.7123606658	0.0
-1.7721528731	-0.7215708574	0.0
0.0	-1.4382316753	0.0
-0.8960638039	-1.4286892249	0.0
-1.7901435591	-1.4378783066	0.0
0.0062043103	-0.0078904056	3.0699508457
-0.8880449105	0.0024900347	3.0850215874
-1.7833615243	-0.0060274347	3.0704435165
0.013101971	-0.7170211286	3.0769641458
-0.8909798711	-0.7183743978	3.0894839758
-1.7939791446	-0.7153744765	3.0765110158
0.00546443	-1.4275630989	3.0706992916
-0.8891391134	-1.4379706991	3.0865732147
-1.7843532246	-1.4261343665	3.0710412624
0.0063646273	0.003030114	6.1581203147
-0.8896120126	0.0163845165	6.1889762517
-1.7852476132	0.0043559313	6.1590928053
0.0264680314	-0.7193557655	6.1757433458
-0.8892248523	-0.717839481	6.2023381919
-1.8053551075	-0.717826859	6.1747831675
0.0046388041	-1.441419898	6.1597049625
-0.8908295967	-1.4524625523	6.1895026734
-1.7862199788	-1.439692093	6.160583046

SCALARS	theta	float 1
LOOKUP_TABLE	default
298.8043317005
298.8545456659
298.8073637747
298.8277015309
298.873044683
298.8276449602
298.8080909449
298.849945699
298.8079863644
305.0146961112
305.0447800777
305.0143691876
305.0282703701
305.0592814573
305.0283905908
305.013724781
305.0451361003
305.0137227909
312.3219151092
312.3415057398
312.3218260861
312.3287940979
312.3484391785
312.3287100923
312.3221651832
312.3415455471
312.3221718361

SCALARS	sig_11	float	1
LOOKUP_TABLE	default
14.9122086013
25.0568396456
15.8006473411
22.5739771658
31.513344213
22.1499504102
15.2809023792
23.8456726376
15.3523988821
-7.0997106352
-2.8455977045
-7.1633452717
-3.7136961808
0.677886993
-3.6889540244
-7.3489259003
-2.973493728
-7.3620535714
-16.9893831127
-16.6617400674
-16.9707753395
-16.9536216637
-16.5972850222
-16.9597465218
-16.9443140443
-16.6467851401
-16.9377276537

SCALARS	sig_22	float	1
LOOKUP_TABLE	default
9.4675717919
18.9114838833
10.163805767
17.7635654293
25.4616675566
17.7573417094
11.1313203908
17.3892833668
11.180241724
-6.0944339997
-3.181737712
-6.1465131684
-2.5886159901
0.5017149799
-2.586756533
-6.2420671929
-3.0943972233
-6.2442115152
-12.3370893108
-12.0805308473
-12.3241285147
-12.4005314291
-12.1349781487
-12.3950462279
-12.281705271
-12.1146452548
-12.2826462415

SCALARS	sig_33	float	1
LOOKUP_TABLE	default
24.5473805508
49.4455856737
25.00195358
42.8936332341
66.9817912976
42.7363597624
25.2425676771
48.7436453333
25.2471941367
-9.5015960587
2.8122152191
-9.5532499333
-0.7180163449
11.7825133025
-0.7156110591
-9.5849454137
2.858511638
-9.5967159418
-48.6539705468
-47.2198981658
-48.6784943072
-48.8006806457
-47.2183036508
-48.7849714357
-48.663571318
-47.2031076399
-48.6434558885

SCALARS vonMises	float	1
LOOKUP_TABLE	default
65.2879704939
49.0191379568
64.8268080814
52.9787808381
34.9912133797
53.212291376
64.7120304278
50.1017390589
64.7711832621
45.3292033602
41.4168899392
45.2435332641
43.1832928168
40.3255103812
43.2235374811
45.21988851
41.5711431879
45.2280633339
49.1317544712
49.0360722608
49.224748672
49.2717750771
49.1215628027
49.2369261654
49.2872456944
48.9723139583
49.2800149475
