# vtk DataFile Version 2.0
Results
ASCII
DATASET UNSTRUCTURED_GRID
POINTS         27           float
0.0	0.0	0.0	
50.0	0.0	0.0	
100.0	0.0	0.0	
0.0	40.0	0.0	
50.0	40.0	0.0	
100.0	40.0	0.0	
0.0	80.0	0.0	
50.0	80.0	0.0	
100.0	80.0	0.0	
0.0	0.0	70.0	
50.0	0.0	70.0	
100.0	0.0	70.0	
0.0	40.0	70.0	
50.0	40.0	70.0	
100.0	40.0	70.0	
0.0	80.0	70.0	
50.0	80.0	70.0	
100.0	80.0	70.0	
0.0	0.0	140.0	
50.0	0.0	140.0	
100.0	0.0	140.0	
0.0	40.0	140.0	
50.0	40.0	140.0	
100.0	40.0	140.0	
0.0	80.0	140.0	
50.0	80.0	140.0	
100.0	80.0	140.0	

CELLS	8	72
 8	0	1	4	3	9	10	13	12	
 8	1	2	5	4	10	11	14	13	
 8	4	5	8	7	13	14	17	16	
 8	3	4	7	6	12	13	16	15	
 8	9	10	13	12	18	19	22	21	
 8	10	11	14	13	19	20	23	22	
 8	13	14	17	16	22	23	26	25	
 8	12	13	16	15	21	22	25	24	

CELL_TYPES	8
 12
 12
 12
 12
 12
 12
 12
 12

POINT_DATA	27
VECTORS	u 	float 
0.0	0.0	0.0
0.0012254394	0.0	0.0
0.0024519866	0.0	0.0
0.0	0.0010528734	0.0
0.0012251127	0.001049905	0.0
0.0024490799	0.0010551628	0.0
0.0	0.0021155342	0.0
0.0012219854	0.002092445	0.0
0.0024424325	0.0021195319	0.0
0.0003769291	0.0004366288	-0.0040483517
0.00122587	0.0004920024	-0.0038984861
0.0020744501	0.000440328	-0.0040488236
0.0003900262	0.0010499708	-0.0039598364
0.0012243045	0.0010515944	-0.0038185054
0.0020588373	0.0010533976	-0.0039605257
0.0003751076	0.001661066	-0.0040474942
0.0012232411	0.0016133874	-0.0038966244
0.0020716465	0.0016644288	-0.004048087
-0.0008912975	-0.0007692087	-0.0077831096
0.0012261389	-0.0006938368	-0.0072762899
0.0033437545	-0.0007659451	-0.0077836423
-0.0008596822	0.0010487836	-0.0073755706
0.00122491	0.001050552	-0.0068746601
0.0033094098	0.001052121	-0.0073761336
-0.0008944876	0.0028676818	-0.0077818697
0.001223507	0.0027939982	-0.0072749146
0.0033413701	0.0028709441	-0.0077823583

VECTORS	v 	float 
0.0	0.0	0.0
0.0024525606	0.0	0.0
0.004904271	0.0	0.0
0.0	0.0021036061	0.0
0.0024481364	0.0021014836	0.0
0.0048963929	0.00210925	0.0
0.0	0.0042248622	0.0
0.0024477952	0.0041892669	0.0
0.0048893125	0.0042349501	0.0
0.0007581412	0.0008777743	-0.0080821823
0.0024514663	0.0009797134	-0.0078011179
0.004144982	0.0008847185	-0.0080831785
0.000777654	0.0021006126	-0.0079139484
0.0024495542	0.0021031378	-0.0076511626
0.0041212327	0.0021068916	-0.0079160666
0.0007548197	0.0033194751	-0.0080807123
0.0024462814	0.0032307084	-0.0077984498
0.0041392223	0.0033255171	-0.008081927
-0.0017792582	-0.001534508	-0.0155388446
0.0024529064	-0.0013894588	-0.0145586849
0.0066853352	-0.0015283014	-0.015540758
-0.0017238253	0.0020983903	-0.0147447936
0.0024502771	0.0021019317	-0.0137760482
0.0066242347	0.0021047166	-0.0147457419
-0.0017852673	0.0057329592	-0.0155368476
0.0024480141	0.0055914693	-0.0145565841
0.0066809251	0.0057390947	-0.0155386266

VECTORS	a 	float 
0.0	0.0	0.0
0.0049051212	0.0	0.0
0.0098085421	0.0	0.0
0.0	0.0042072121	0.0
0.0048962728	0.0042029673	0.0
0.0097927858	0.0042185	0.0
0.0	0.0084497244	0.0
0.0048955905	0.0083785339	0.0
0.009778625	0.0084699001	0.0
0.0015162824	0.0017555486	-0.0161643646
0.0049029325	0.0019594268	-0.0156022358
0.008289964	0.001769437	-0.0161663569
0.001555308	0.0042012253	-0.0158278969
0.0048991085	0.0042062756	-0.0153023253
0.0082424655	0.0042137832	-0.0158321332
0.0015096394	0.0066389501	-0.0161614246
0.0048925628	0.0064614168	-0.0155968997
0.0082784447	0.0066510342	-0.0161638539
-0.0035585164	-0.0030690161	-0.0310776892
0.0049058128	-0.0027789176	-0.0291173698
0.0133706705	-0.0030566029	-0.0310815161
-0.0034476506	0.0041967806	-0.0294895872
0.0049005542	0.0042038634	-0.0275520964
0.0132484693	0.0042094332	-0.0294914838
-0.0035705345	0.0114659183	-0.0310736952
0.0048960282	0.0111829385	-0.0291131681
0.0133618502	0.0114781893	-0.0310772531

SCALARS	theta	float 1
LOOKUP_TABLE	default
300.0967358729
300.0905493595
300.0963687328
300.0940602124
300.0900383401
300.0940455561
300.0953654426
300.0919716371
300.0954437474
299.9787020733
299.9691002723
299.9787980855
299.9678426926
299.9580297609
299.9678458214
299.9790976276
299.9687569505
299.9790788616
300.2762720342
300.2591381014
300.2762355143
300.2562760938
300.2389860909
300.2562676936
300.2760627843
300.2593138909
300.2760744483

SCALARS	sig_11	float	1
LOOKUP_TABLE	default
-1.0370961168
-0.7716398868
-1.0284896588
-0.8671217156
-0.6388482749
-0.8620286293
-1.0168103452
-0.8079574603
-1.0263983696
0.5122632899
0.9153944829
0.5114809754
0.9351375909
1.3366490209
0.9345492193
0.506504157
0.914093178
0.5070907997
-1.6543603215
-1.0511808125
-1.6544908934
-0.9864480847
-0.3796909803
-0.9858738074
-1.652127116
-1.0516805956
-1.6527767939

SCALARS	sig_22	float	1
LOOKUP_TABLE	default
-0.8991111027
-0.6589794031
-0.883645355
-0.7143741791
-0.5222430322
-0.7027696855
-0.8600530926
-0.6961423226
-0.8594408985
0.373690294
0.68346452
0.3732273581
0.8160955533
1.1252172607
0.8160778769
0.3699066067
0.6857947645
0.3707604149
-1.3929665502
-0.9221660597
-1.3934446455
-0.6855262682
-0.2112910839
-0.6850326211
-1.3909699579
-0.9234589506
-1.3919713421

SCALARS	sig_33	float	1
LOOKUP_TABLE	default
-13.8875230357
-13.4623075441
-13.8793193638
-13.6150000074
-13.2321201219
-13.6105669448
-13.8608071949
-13.4894379633
-13.8664003289
-11.5896790628
-10.9046559078
-11.5912012463
-10.9186622357
-10.2367950052
-10.9196232797
-11.5923175617
-10.9029326324
-11.5926797631
-15.6686371893
-14.6611304648
-15.6693417354
-14.5990314657
-13.5857158001
-14.5977273764
-15.666634628
-14.6622036616
-15.6674429246

SCALARS vonMises	float	1
LOOKUP_TABLE	default
9.2495487171
9.0951416578
9.2530613827
9.1322530362
8.9700936938
9.1349068658
9.2536971715
9.0871252183
9.2545525854
8.8016453666
8.4558412871
8.8030054002
8.5116636109
8.1551074642
8.5120304356
8.8013416116
8.4535703267
8.8021678003
10.1468941585
9.7776551268
10.1472384989
9.8534527724
9.4811305998
9.8529563246
10.1474189735
9.7775450142
10.1473142994
