# vtk DataFile Version 2.0
Results
ASCII
DATASET UNSTRUCTURED_GRID
POINTS         27           float
0.0	0.0	0.0	
50.0	0.0	0.0	
100.0	0.0	0.0	
0.0	40.0	0.0	
50.0	40.0	0.0	
100.0	40.0	0.0	
0.0	80.0	0.0	
50.0	80.0	0.0	
100.0	80.0	0.0	
0.0	0.0	70.0	
50.0	0.0	70.0	
100.0	0.0	70.0	
0.0	40.0	70.0	
50.0	40.0	70.0	
100.0	40.0	70.0	
0.0	80.0	70.0	
50.0	80.0	70.0	
100.0	80.0	70.0	
0.0	0.0	140.0	
50.0	0.0	140.0	
100.0	0.0	140.0	
0.0	40.0	140.0	
50.0	40.0	140.0	
100.0	40.0	140.0	
0.0	80.0	140.0	
50.0	80.0	140.0	
100.0	80.0	140.0	

CELLS	8	72
 8	0	1	4	3	9	10	13	12	
 8	1	2	5	4	10	11	14	13	
 8	4	5	8	7	13	14	17	16	
 8	3	4	7	6	12	13	16	15	
 8	9	10	13	12	18	19	22	21	
 8	10	11	14	13	19	20	23	22	
 8	13	14	17	16	22	23	26	25	
 8	12	13	16	15	21	22	25	24	

CELL_TYPES	8
 12
 12
 12
 12
 12
 12
 12
 12

POINT_DATA	27
VECTORS	u 	float 
0.0	0.0	0.0
-0.007084422	0.0	0.0
-0.0137907159	0.0	0.0
0.0	-0.0076894641	0.0
-0.0070914359	-0.0077166493	0.0
-0.0144539213	-0.007558859	0.0
0.0	-0.0146107954	0.0
-0.0072121289	-0.0160776917	0.0
-0.014306847	-0.0144697212	0.0
-0.0301079331	-0.0267675048	-0.0011729549
-0.0070465022	-0.0256952421	0.0132963688
0.0159246832	-0.0265799767	-0.0011648379
-0.0300705557	-0.0077421481	0.0090010556
-0.0071278731	-0.0077006659	0.0235564057
0.0158814837	-0.0075849533	0.0089859804
-0.0301681845	0.0111043465	-0.0011178556
-0.0071782276	0.0104665021	0.0133382483
0.015780383	0.0112626038	-0.0011344797
-0.0744093339	-0.0633250824	0.0609364714
-0.007056249	-0.0635265958	0.0771003994
0.0603394569	-0.0631774326	0.0609163895
-0.0746060149	-0.0078112045	0.0715875418
-0.0071087383	-0.0077073	0.0880188863
0.0603574443	-0.0076486335	0.071585993
-0.0745693901	0.0477868807	0.0609587763
-0.0071773905	0.0480315961	0.0771633707
0.060228319	0.0479455746	0.0609494718

VECTORS	v 	float 
0.0	0.0	0.0
7.93963e-05	0.0	0.0
0.0001616118	0.0	0.0
0.0	5.61484e-05	0.0
8.61052e-05	6.22289e-05	0.0
0.0001697421	5.58392e-05	0.0
0.0	0.0001150994	0.0
7.76216e-05	0.0001224753	0.0
0.0001573315	0.0001147709	0.0
6.02826e-05	3.04605e-05	8.65896e-05
8.34843e-05	3.69879e-05	6.54232e-05
0.0001057892	3.15919e-05	8.69515e-05
6.72765e-05	5.91308e-05	7.00414e-05
8.13973e-05	5.82385e-05	4.74605e-05
9.64621e-05	6.01603e-05	6.98485e-05
5.9844e-05	8.69788e-05	8.70798e-05
8.28769e-05	8.01978e-05	6.67049e-05
0.0001052996	8.78208e-05	8.73604e-05
0.0002036591	0.0001702542	5.43426e-05
8.23276e-05	0.0001790607	1.64731e-05
-3.87296e-05	0.0001711337	5.52386e-05
0.0002195327	5.74866e-05	2.35433e-05
8.26457e-05	5.84327e-05	-1.76203e-05
-5.46243e-05	5.85187e-05	2.28111e-05
0.0002024154	-5.51866e-05	5.56181e-05
8.14538e-05	-6.23713e-05	1.68114e-05
-3.94121e-05	-5.39514e-05	5.64013e-05

VECTORS	a 	float 
0.0	0.0	0.0
-0.894231638	0.0	0.0
-1.7856701325	0.0	0.0
0.0	-0.7209033528	0.0
-0.886376715	-0.7126035968	0.0
-1.7751139037	-0.7207480433	0.0
0.0	-1.4373939842	0.0
-0.8962852239	-1.4285248131	0.0
-1.7909637437	-1.4370845332	0.0
0.0043686613	-0.0066535481	3.0721033711
-0.8893570796	0.0020610299	3.0843554175
-1.7839622266	-0.0050792241	3.0725347301
0.0101031607	-0.7166953331	3.0776283974
-0.8918904813	-0.7179055446	3.0875648335
-1.7929890753	-0.7153021506	3.0772258334
0.0037351196	-1.4279210316	3.0727407189
-0.8902801848	-1.4368125625	3.0856593777
-1.7847981257	-1.4267101412	3.0730439841
0.0062385645	0.0030710434	6.1580980249
-0.8907206218	0.0149023282	6.1849005323
-1.7874054532	0.0041788256	6.1589366418
0.0236340767	-0.7187047978	6.173559009
-0.8903669341	-0.7174049182	6.1965535322
-1.8047241118	-0.7174277668	6.1727273364
0.0048025635	-1.4402155113	6.1594467374
-0.891734774	-1.4500396521	6.1853333521
-1.7882142717	-1.4387731944	6.160203949

SCALARS	theta	float 1
LOOKUP_TABLE	default
298.1832007061
298.2353626227
298.1863182774
298.206671984
298.2536686154
298.206696293
298.1872758007
298.230545377
298.1872206148
304.8256544059
304.865716449
304.8252698903
304.8439513596
304.8850031067
304.8440471707
304.8246665371
304.8661859549
304.8246592519
313.2747955092
313.3136662692
313.2747111929
313.2913049912
313.3302290343
313.2912094836
313.2750974426
313.3137058362
313.2750841992

SCALARS	sig_11	float	1
LOOKUP_TABLE	default
15.0911439453
26.4199114293
16.0763473231
23.6240287828
33.6123916709
23.1569611089
15.5012591788
25.0678669528
15.5764118022
-6.6599682239
-1.8341196399
-6.7299528388
-2.7715074649
2.2062599319
-2.7441409067
-6.9374961989
-1.9769652707
-6.9518080262
-20.2951130049
-19.7900060196
-20.2746947787
-20.0344176371
-19.4967811584
-20.0410734813
-20.244811805
-19.7731260934
-20.2375605456

SCALARS	sig_22	float	1
LOOKUP_TABLE	default
9.2987975274
19.845907072
10.0755698139
18.5416498356
27.1440679024
18.5379534384
11.150159262
18.1493142779
11.2055993282
-5.7965930144
-2.4821818537
-5.8536809433
-1.7574561763
1.7538674272
-1.7551034336
-5.9612630138
-2.3856709147
-5.9632849836
-14.8778130026
-14.483982872
-14.8637397755
-14.689265564
-14.2847202597
-14.6832403736
-14.8163024774
-14.5219223975
-14.8175014041

SCALARS	sig_33	float	1
LOOKUP_TABLE	default
25.2070888568
52.9694135201
25.7140888898
45.608638875
72.463081042
45.4349070791
25.982089307
52.1846585466
25.9852492727
-8.7384771524
5.4106518765
-8.795196268
1.4696106082
15.8240027689
1.4722480381
-8.8312877
5.4614983492
-8.8445306321
-57.4333613905
-55.0008778267
-57.460723424
-56.7193643063
-54.1213559069
-56.7018781883
-57.4435529012
-54.9821598996
-57.4214326376

SCALARS vonMises	float	1
LOOKUP_TABLE	default
69.7175371865
52.3726034706
69.2091998219
56.8187699929
38.025695478
57.0759038031
69.087765894
53.5794558695
69.1552157956
50.678865455
46.4390213542
50.5910288491
48.3384952483
45.3630390786
48.3787458278
50.5665596807
46.5868300142
50.5755229412
56.8378450447
56.40931085
56.9407077238
56.7738831645
56.2916843064
56.7356917215
57.010660481
56.3378118715
57.002159633
