# vtk DataFile Version 2.0
Results
ASCII
DATASET UNSTRUCTURED_GRID
POINTS         27           float
0.0	0.0	0.0	
50.0	0.0	0.0	
100.0	0.0	0.0	
0.0	40.0	0.0	
50.0	40.0	0.0	
100.0	40.0	0.0	
0.0	80.0	0.0	
50.0	80.0	0.0	
100.0	80.0	0.0	
0.0	0.0	70.0	
50.0	0.0	70.0	
100.0	0.0	70.0	
0.0	40.0	70.0	
50.0	40.0	70.0	
100.0	40.0	70.0	
0.0	80.0	70.0	
50.0	80.0	70.0	
100.0	80.0	70.0	
0.0	0.0	140.0	
50.0	0.0	140.0	
100.0	0.0	140.0	
0.0	40.0	140.0	
50.0	40.0	140.0	
100.0	40.0	140.0	
0.0	80.0	140.0	
50.0	80.0	140.0	
100.0	80.0	140.0	

CELLS	8	72
 8	0	1	4	3	9	10	13	12	
 8	1	2	5	4	10	11	14	13	
 8	4	5	8	7	13	14	17	16	
 8	3	4	7	6	12	13	16	15	
 8	9	10	13	12	18	19	22	21	
 8	10	11	14	13	19	20	23	22	
 8	13	14	17	16	22	23	26	25	
 8	12	13	16	15	21	22	25	24	

CELL_TYPES	8
 12
 12
 12
 12
 12
 12
 12
 12

POINT_DATA	27
VECTORS	u 	float 
0.0	0.0	0.0
-0.0145534821	0.0	0.0
-0.0286558055	0.0	0.0
0.0	-0.0130703177	0.0
-0.0145732266	-0.0131062802	0.0
-0.0294668858	-0.0128937704	0.0
0.0	-0.0251348156	0.0
-0.0147271475	-0.0270535246	0.0
-0.0293343584	-0.024931522	0.0
-0.030912398	-0.0258499228	-0.0144246167
-0.014508701	-0.0243169751	0.004824341
0.0017852018	-0.0255974565	-0.0144177036
-0.0308230022	-0.0131433142	-0.0011863373
-0.0146153786	-0.0130848423	0.018134618
0.0016702398	-0.0129313131	-0.0012094086
-0.0309991514	-0.0006700751	-0.0143486897
-0.0146862497	-0.0016253988	0.0048845408
0.0015934693	-0.0004575444	-0.0143723589
-0.1025122409	-0.0870007662	0.050956371
-0.0145177506	-0.0870622691	0.0782410163
0.0735293316	-0.0868011191	0.0509270347
-0.1025878208	-0.013237738	0.0700211493
-0.0145901977	-0.0130985088	0.0976199719
0.0733708848	-0.0130185938	0.0700159216
-0.1027268298	0.0606355006	0.0509922712
-0.0146814126	0.0607593357	0.0783289192
0.0733786118	0.0608492557	0.0509764991

VECTORS	v 	float 
0.0	0.0	0.0
3.92446e-05	0.0	0.0
8.27023e-05	0.0	0.0
0.0	5.8958e-06	0.0
4.9493e-05	1.52339e-05	0.0
9.53548e-05	5.5617e-06	0.0
0.0	1.56473e-05	0.0
3.71676e-05	2.7645e-05	0.0
7.73533e-05	1.51811e-05	0.0
-5.81826e-05	-9.93599e-05	0.0001094808
4.54744e-05	-9.4471e-05	8.3728e-05
0.0001478829	-9.80444e-05	0.0001100412
-5.13505e-05	1.07198e-05	9.28244e-05
4.24486e-05	9.1186e-06	6.5649e-05
0.0001375675	1.18883e-05	9.25034e-05
-5.85765e-05	0.0001196852	0.0001100637
4.47898e-05	0.0001136741	8.52545e-05
0.0001473094	0.0001206213	0.0001105098
0.0002836267	0.0002357324	0.00013425
4.3617e-05	0.0002430612	1.21987e-05
-0.0001959908	0.0002364422	0.0001354033
0.0003018843	8.5491e-06	2.99947e-05
4.43717e-05	9.7645e-06	-9.57575e-05
-0.000213699	9.4568e-06	2.90682e-05
0.0002824235	-0.0002184722	0.0001357713
4.2901e-05	-0.0002237851	1.25789e-05
-0.0001964519	-0.0002173188	0.0001368192

VECTORS	a 	float 
0.0	0.0	0.0
-0.896556812	0.0	0.0
-1.7920190398	0.0	0.0
0.0	-0.7185036684	0.0
-0.8920501585	-0.7134510811	0.0
-1.7850278454	-0.7184145108	0.0
0.0	-1.4349073598	0.0
-0.8976361818	-1.4284483397	0.0
-1.7946814222	-1.434731202	0.0
-0.0016679943	-0.0033488199	3.0781289098
-0.8937768521	0.0011417132	3.0831715142
-1.7862550498	-0.0025525417	3.0783832701
0.0010106506	-0.7158740206	3.0798004893
-0.8951741805	-0.716628495	3.0832148455
-1.7909733729	-0.7151633186	3.0795491051
-0.0020211778	-1.4289657725	3.0784543534
-0.8942398306	-1.4339072884	3.083813525
-1.7866681099	-1.4283403234	3.0786441331
0.0044421381	0.0026277042	6.1565134854
-0.8945429107	0.0105004569	6.1738187606
-1.7934316146	0.0031868112	6.1569760777
0.0143921221	-0.7169706565	6.1670618938
-0.8943180414	-0.7162702828	6.18187296
-1.8031658641	-0.7163352246	6.1665932245
0.0037485209	-1.4364540365	6.1572030464
-0.89504693	-1.4431784416	6.1740120854
-1.7938385832	-1.4357435267	6.1576212044

SCALARS	theta	float 1
LOOKUP_TABLE	default
296.9872399448
297.021270426
296.9888577723
296.9951617909
297.0243386002
296.9963467228
296.9918119668
297.0167068222
296.9915153467
303.2107297952
303.3147775709
303.2101694013
303.2667156894
303.3714833281
303.2664157384
303.2100058754
303.3157585677
303.2100312111
317.4172611517
317.6127199842
317.4173432053
317.527267856
317.7229058016
317.5273132397
317.417666703
317.6126537006
317.4175621439

SCALARS	sig_11	float	1
LOOKUP_TABLE	default
5.5829536297
20.9289794763
6.8301642484
16.8712025037
30.4852684317
16.3194108048
6.1131768232
19.1195465701
6.1607136203
2.953126488
10.408756563
2.8691541709
9.2754000834
16.9192459128
9.3085130717
2.5859358063
10.2174325269
2.571361081
-40.2991441374
-37.9825252821
-40.2766955885
-37.8140992874
-35.4509245544
-37.8217543487
-40.231431292
-37.9581542757
-40.2243841223

SCALARS	sig_22	float	1
LOOKUP_TABLE	default
0.498354955
14.7995000989
1.5411266124
12.7361383871
24.4703740812
12.777824156
2.9324029123
12.5497159253
3.0223361577
1.7002149569
6.9037972493
1.6343160432
8.3372788297
13.7916020136
8.3436386277
1.4811423416
7.0274665763
1.484132418
-30.7261602097
-28.9899668623
-30.7124863383
-28.0301914176
-26.275911693
-28.0237558861
-30.6451199649
-29.0388511515
-30.6497909972

SCALARS	sig_33	float	1
LOOKUP_TABLE	default
13.1498790173
50.4006323215
13.820090237
39.9086352073
75.9208465091
39.7002521858
14.1761924394
49.3457409094
14.1639878815
5.8833350626
29.0348601674
5.8149471539
23.5095423076
46.9065719767
23.5117294166
5.7610842632
29.0983698159
5.7435188779
-107.5193348437
-96.0407098835
-107.5583398754
-98.2034479456
-86.5053942155
-98.1809428942
-107.5284927747
-96.0147472267
-107.5034209387

SCALARS vonMises	float	1
LOOKUP_TABLE	default
64.5077903679
49.1022319456
63.9045864842
55.1943915108
42.1282562348
55.4943428157
63.8461176068
50.7261947594
63.9571580468
71.7933334658
68.2645110973
71.807823708
69.3934952184
66.0267320744
69.3957417334
71.8209070763
68.1837246822
71.8319668789
96.0778865618
92.2880971817
96.2069984956
93.8475265275
90.1537383907
93.8051680042
96.3017606956
92.1906099041
96.2870279808
