# vtk DataFile Version 2.0
Results
ASCII
DATASET UNSTRUCTURED_GRID
POINTS         27           float
0.0	0.0	0.0	
50.0	0.0	0.0	
100.0	0.0	0.0	
0.0	40.0	0.0	
50.0	40.0	0.0	
100.0	40.0	0.0	
0.0	80.0	0.0	
50.0	80.0	0.0	
100.0	80.0	0.0	
0.0	0.0	70.0	
50.0	0.0	70.0	
100.0	0.0	70.0	
0.0	40.0	70.0	
50.0	40.0	70.0	
100.0	40.0	70.0	
0.0	80.0	70.0	
50.0	80.0	70.0	
100.0	80.0	70.0	
0.0	0.0	140.0	
50.0	0.0	140.0	
100.0	0.0	140.0	
0.0	40.0	140.0	
50.0	40.0	140.0	
100.0	40.0	140.0	
0.0	80.0	140.0	
50.0	80.0	140.0	
100.0	80.0	140.0	

CELLS	8	72
 8	0	1	4	3	9	10	13	12	
 8	1	2	5	4	10	11	14	13	
 8	4	5	8	7	13	14	17	16	
 8	3	4	7	6	12	13	16	15	
 8	9	10	13	12	18	19	22	21	
 8	10	11	14	13	19	20	23	22	
 8	13	14	17	16	22	23	26	25	
 8	12	13	16	15	21	22	25	24	

CELL_TYPES	8
 12
 12
 12
 12
 12
 12
 12
 12

POINT_DATA	27
VECTORS	u 	float 
0.0	0.0	0.0
-0.0006639849	0.0	0.0
-0.0010220447	0.0	0.0
0.0	-0.0023162434	0.0
-0.0006687767	-0.0023373337	0.0
-0.0015569134	-0.0022123819	0.0
0.0	-0.0040207557	0.0
-0.0007649497	-0.0051886823	0.0
-0.0014333587	-0.003910158	0.0
-0.0252140053	-0.0226507911	0.0068249397
-0.0006333373	-0.0218084322	0.0183188673
0.0238746757	-0.0225019296	0.0068319319
-0.025194529	-0.0023571912	0.0149481066
-0.0006981227	-0.0023245621	0.0265156864
0.0238523406	-0.002232351	0.0149364331
-0.0252610228	0.0177937621	0.0068679435
-0.0007379568	0.0172964092	0.0183507723
0.0237593748	0.0179195752	0.0068548595
-0.0586206718	-0.0499296295	0.0645530029
-0.0006414007	-0.0501088921	0.0765668878
0.0573721749	-0.0498122836	0.0645374309
-0.0588095861	-0.0024111632	0.0723212122
-0.0006830461	-0.0023285988	0.084552521
0.0574183727	-0.0022818595	0.0723204427
-0.0587478597	0.0451742993	0.0645690933
-0.0007377786	0.0453877295	0.0766154718
0.0572836295	0.0453006423	0.0645621571

VECTORS	v 	float 
0.0	0.0	0.0
6.28517e-05	0.0	0.0
0.0001217008	0.0	0.0
0.0	6.30345e-05	0.0
5.50625e-05	5.35094e-05	0.0
0.0001134378	6.23638e-05	0.0
0.0	0.0001195907	0.0
6.48472e-05	0.0001122007	0.0
0.000127868	0.0001184813	0.0
4.14901e-05	5.35925e-05	8.90092e-05
5.7775e-05	4.35586e-05	4.83182e-05
7.52361e-05	5.14739e-05	8.85259e-05
3.58449e-05	5.81236e-05	6.18943e-05
6.04906e-05	5.94503e-05	2.32734e-05
8.3966e-05	5.63291e-05	6.25069e-05
4.22139e-05	6.43583e-05	8.81144e-05
5.91287e-05	7.3698e-05	4.70188e-05
7.65735e-05	6.28198e-05	8.78546e-05
0.0001552197	0.0001325911	2.54297e-05
5.90665e-05	0.0001234538	-2.7555e-05
-3.75714e-05	0.0001309557	2.46971e-05
0.0001387113	6.05437e-05	-8.2343e-06
5.88932e-05	5.88103e-05	-5.83544e-05
-2.03498e-05	5.86649e-05	-7.3469e-06
0.0001573312	-1.19862e-05	2.37882e-05
6.05348e-05	-5.2296e-06	-2.79491e-05
-3.63862e-05	-1.40692e-05	2.31607e-05

VECTORS	a 	float 
0.0	0.0	0.0
0.8937732013	0.0	0.0
1.7832122004	0.0	0.0
0.0	0.722743394	0.0
0.8833288738	0.7121426039	0.0
1.7703147223	0.7225431634	0.0
0.0	1.4390689073	0.0
0.8966501529	1.4291495863	0.0
1.7907650448	1.438655316	0.0
-0.0081019513	0.0093279166	-3.0680361513
0.8872762103	-0.0033810363	-3.0868766067
1.7839853611	0.0070901839	-3.0685976882
-0.0163483279	0.7174668887	-3.0769352508
0.8907185012	0.7189885556	-3.0929928674
1.7964364951	0.7154982625	-3.0764244193
-0.0072351846	1.4273325106	-3.0689302824
0.8885869743	1.4397999309	-3.0887685006
1.7851669453	1.4256375515	-3.0693131732
-0.0038830871	-0.0022507295	-6.1573982022
0.8891110144	-0.0173895268	-6.1939856207
1.781664094	-0.003814706	-6.1585283026
-0.0269660803	0.7202077644	-6.1776717061
0.8886641351	0.7184252312	-6.2095700979
1.8048536923	0.7183910663	-6.1765587349
-0.0018080967	1.442262207	-6.1592918174
0.8905516957	1.4547455898	-6.1946464119
1.7828022285	1.4401973274	-6.1603160758

SCALARS	theta	float 1
LOOKUP_TABLE	default
299.4882504441
299.5352506039
299.4911423477
299.5107125548
299.553126635
299.5105733414
299.4917176162
299.5308904075
299.4916123226
305.1361414983
305.1591054397
305.135848865
305.1464794319
305.1703378766
305.1466196502
305.1351869946
305.1593926683
305.1351788747
311.430846193
311.4386793869
311.4307749724
311.4320955633
311.4399674244
311.4320205797
311.4310656411
311.4386948048
311.4310963007

SCALARS	sig_11	float	1
LOOKUP_TABLE	default
14.0403835332
23.0134165513
14.8300703262
20.8304798039
28.7337766644
20.4520304582
14.3685002551
21.9412164192
14.4341996081
-6.9769363582
-3.2556138309
-7.0338816424
-4.0403153166
-0.1962733217
-4.0183033881
-7.1978911421
-3.3685230936
-7.2096581837
-14.294186523
-14.0806831034
-14.2775331824
-14.3841329816
-14.1456095087
-14.3897119428
-14.2541023004
-14.0676224247
-14.2482530344

SCALARS	sig_22	float	1
LOOKUP_TABLE	default
9.0671626048
17.4214877794
9.6839954913
16.4153224786
23.2222346267
16.4080531575
10.5429894374
16.0730098718
10.5863053421
-5.9448572601
-3.4015487652
-5.9915752525
-2.9135773779
-0.2121193209
-2.9120645945
-6.0755830627
-3.3235298015
-6.0776646083
-10.3008333025
-10.1319608754
-10.2891235849
-10.5018378955
-10.3254499416
-10.4969784853
-10.2515052338
-10.162232242
-10.2522535337

SCALARS	sig_33	float	1
LOOKUP_TABLE	default
22.888188639
44.9239519038
23.2910185977
39.1538473283
60.4743587128
39.0135180248
23.5047847287
44.3030245924
23.5102277565
-9.4358512172
1.2298737132
-9.4822162646
-1.8926997167
8.9403586625
-1.8905642978
-9.5098264195
1.2715644678
-9.5201592
-41.2677997955
-40.4590844311
-41.2894619603
-41.8842793122
-40.9446215636
-41.8704248398
-41.2762817545
-40.4443732341
-41.2583184214

SCALARS vonMises	float	1
LOOKUP_TABLE	default
59.4226832383
44.6066386681
59.0119714511
48.0846053426
31.4908589556
48.2922080953
58.9067051972
45.5650198678
58.9587873987
40.0116687318
36.5262834112
39.9320567982
38.1042035663
35.4760568744
38.1421160226
39.9097214076
36.675674256
39.9172140209
42.2833862999
42.4073075465
42.3659316417
42.5429628411
42.6170297767
42.5119008241
42.4209195711
42.3515323647
42.4146512457
