# vtk DataFile Version 2.0
Results
ASCII
DATASET UNSTRUCTURED_GRID
POINTS         27           float
0.0	0.0	0.0	
50.0	0.0	0.0	
100.0	0.0	0.0	
0.0	40.0	0.0	
50.0	40.0	0.0	
100.0	40.0	0.0	
0.0	80.0	0.0	
50.0	80.0	0.0	
100.0	80.0	0.0	
0.0	0.0	70.0	
50.0	0.0	70.0	
100.0	0.0	70.0	
0.0	40.0	70.0	
50.0	40.0	70.0	
100.0	40.0	70.0	
0.0	80.0	70.0	
50.0	80.0	70.0	
100.0	80.0	70.0	
0.0	0.0	140.0	
50.0	0.0	140.0	
100.0	0.0	140.0	
0.0	40.0	140.0	
50.0	40.0	140.0	
100.0	40.0	140.0	
0.0	80.0	140.0	
50.0	80.0	140.0	
100.0	80.0	140.0	

CELLS	8	72
 8	0	1	4	3	9	10	13	12	
 8	1	2	5	4	10	11	14	13	
 8	4	5	8	7	13	14	17	16	
 8	3	4	7	6	12	13	16	15	
 8	9	10	13	12	18	19	22	21	
 8	10	11	14	13	19	20	23	22	
 8	13	14	17	16	22	23	26	25	
 8	12	13	16	15	21	22	25	24	

CELL_TYPES	8
 12
 12
 12
 12
 12
 12
 12
 12

POINT_DATA	27
VECTORS	u 	float 
0.0	0.0	0.0
-0.0144452562	0.0	0.0
-0.0284391316	0.0	0.0
0.0	-0.0130295005	0.0
-0.0144619853	-0.0130642328	0.0
-0.0292448226	-0.0128544078	0.0
0.0	-0.0250584962	0.0
-0.0146179701	-0.026964987	0.0
-0.0291144039	-0.0248575105	0.0
-0.0311183259	-0.0261145425	-0.0140585989
-0.014399061	-0.0245958666	0.0050660404
0.00221042	-0.0258637341	-0.014051463
-0.0310285045	-0.0131013981	-0.0008937874
-0.0145057462	-0.0130436724	0.0183043239
0.0020952091	-0.0128907978	-0.000916568
-0.031204268	-0.000320442	-0.0139832342
-0.0145753817	-0.0012654211	0.0051259966
0.002019955	-0.0001092946	-0.0140065722
-0.1016729036	-0.0862964471	0.0513457393
-0.0144086655	-0.0863657886	0.0782045366
0.0729080709	-0.0860982426	0.05131692
-0.1017491402	-0.0131953829	0.0700717135
-0.0144802972	-0.0130569985	0.097244206
0.0727519409	-0.0129777742	0.0700665322
-0.1018860969	0.0600152937	0.0513813135
-0.0145711655	0.0601464865	0.0782919063
0.0727584814	0.0602275802	0.051366004

VECTORS	v 	float 
0.0	0.0	0.0
3.38488e-05	0.0	0.0
6.26426e-05	0.0	0.0
0.0	1.99779e-05	0.0
2.44609e-05	1.35002e-05	0.0
5.30553e-05	1.96176e-05	0.0
0.0	3.19945e-05	0.0
3.70143e-05	3.31377e-05	0.0
7.11215e-05	3.14747e-05	0.0
-7.6537e-05	-7.55391e-05	0.0001408046
2.79388e-05	-9.39603e-05	7.55248e-05
0.0001339381	-7.80297e-05	0.000140439
-8.60607e-05	1.71992e-05	0.0001048815
3.12954e-05	1.79657e-05	4.09981e-05
0.0001472532	1.49981e-05	0.000105147
-7.55717e-05	0.0001119616	0.0001399009
2.94339e-05	0.000128022	7.34964e-05
0.0001353008	0.0001099759	0.0001397155
0.0002779569	0.0002357702	0.000138635
2.96855e-05	0.0002196736	-3.93998e-05
-0.0002191014	0.0002340918	0.0001376974
0.0002547507	1.95241e-05	7.1543e-06
2.93903e-05	1.78543e-05	-0.0001684489
-0.0001954232	1.75767e-05	8.0735e-06
0.0002801214	-0.0001973402	0.00013696
3.12036e-05	-0.0001832717	-4.0451e-05
-0.0002178568	-0.0001994971	0.000136081

VECTORS	a 	float 
0.0	0.0	0.0
0.8964843302	0.0	0.0
1.7918217749	0.0	0.0
0.0	0.7185680815	0.0
0.8918831337	0.7134411087	0.0
1.7847376189	0.7184797358	0.0
0.0	1.4349730539	0.0
0.8975923735	1.4284761751	0.0
1.7945591595	1.4347982647	0.0
0.0014897197	0.0034548016	-3.0779570092
0.8936461944	-0.0011526278	-3.083205532
1.7861875992	0.0026383674	-3.0782159493
-0.0012791928	0.7159041186	-3.0797346232
0.8950753473	0.7166694373	-3.0833450219
1.7910290672	0.7151755038	-3.0794811921
0.0018499969	1.4289368796	-3.0782908689
0.8941205823	1.4339848777	-3.083866678
1.7866106571	1.4282959031	-3.0784835128
-0.0044888921	-0.0026429211	-6.1565706298
0.8944301454	-0.0106070553	-6.1741021499
1.793247742	-0.0032149103	-6.157044555
-0.0146360799	0.7170240987	-6.1672208532
0.8942006324	0.7163088519	-6.1822298062
1.8031810921	0.716373242	-6.1667427796
-0.0037769666	1.4365720389	-6.1572780608
0.8949463284	1.443367188	-6.1743028856
1.7936640137	1.4358435664	-6.1577064916

SCALARS	theta	float 1
LOOKUP_TABLE	default
296.9909929218
297.0259423179
296.992624504
296.9995323272
297.0298141478
297.0007328731
296.995436544
297.0214860405
296.9951122841
303.2894940123
303.3910933231
303.2889612903
303.3436388135
303.4459327999
303.343341758
303.288793123
303.3920185312
303.2888289688
317.2679498773
317.4565194685
317.2680037356
317.373170046
317.5619395879
317.3732187859
317.2683314972
317.4564815281
317.2682167716

SCALARS	sig_11	float	1
LOOKUP_TABLE	default
6.214395259
21.4289780419
7.4542254759
17.4192583214
30.9155567732
16.8689293081
6.7404686769
19.6357906513
6.789663508
2.4084599962
9.7503883392
2.3248088262
8.6320948498
16.1616964954
8.665115812
2.0442305651
9.5603675509
2.0295382765
-39.415257212
-37.2123534626
-39.3928667458
-37.0422666631
-34.7929341318
-37.0498387845
-39.3484276238
-37.1881534586
-39.3413582941

SCALARS	sig_22	float	1
LOOKUP_TABLE	default
1.0404337397
15.2170691672
2.0737777355
13.1902452612
24.821764821
13.2299049585
3.4557271736
12.9856813678
3.5434203394
1.2720711797
6.3985007479
1.2063044231
7.8018412669
13.1778838276
7.8080904463
1.0548956139
6.5211530867
1.0576058524
-30.0231159644
-28.3600130766
-30.0094648674
-27.4601744627
-25.7789422196
-27.4536791835
-29.9428815886
-28.4084647922
-29.947484313

SCALARS	sig_33	float	1
LOOKUP_TABLE	default
13.9946389935
50.959813691
14.6589114945
40.5820822511
76.3230054644
40.3749274162
15.0120626746
49.9147210774
14.9999879704
5.0746951688
27.8514974379
5.0065500811
22.3895889734
45.4119552715
22.3919832245
4.9534441649
27.9143610381
4.9359311174
-105.3770052085
-94.3805743583
-105.4157752885
-96.514139603
-85.2992608531
-96.491671102
-105.3866382863
-94.3545905729
-105.3616797386

SCALARS vonMises	float	1
LOOKUP_TABLE	default
65.3202230326
49.6678732041
64.7148952981
55.7147636399
42.198118837
56.0189825804
64.6510761139
51.2808367761
64.7580175518
70.9985214751
67.3721008875
71.0031468003
68.5937886731
65.2616218652
68.5989063074
71.01291782
67.3047406891
71.0235649401
94.5486045639
90.8832888147
94.6769934896
92.4062295054
88.8194024038
92.3637160978
94.7713993838
90.7858537365
94.7568567548
