# vtk DataFile Version 2.0
Results
ASCII
DATASET UNSTRUCTURED_GRID
POINTS         27           float
0.0	0.0	0.0	
50.0	0.0	0.0	
100.0	0.0	0.0	
0.0	40.0	0.0	
50.0	40.0	0.0	
100.0	40.0	0.0	
0.0	80.0	0.0	
50.0	80.0	0.0	
100.0	80.0	0.0	
0.0	0.0	70.0	
50.0	0.0	70.0	
100.0	0.0	70.0	
0.0	40.0	70.0	
50.0	40.0	70.0	
100.0	40.0	70.0	
0.0	80.0	70.0	
50.0	80.0	70.0	
100.0	80.0	70.0	
0.0	0.0	140.0	
50.0	0.0	140.0	
100.0	0.0	140.0	
0.0	40.0	140.0	
50.0	40.0	140.0	
100.0	40.0	140.0	
0.0	80.0	140.0	
50.0	80.0	140.0	
100.0	80.0	140.0	

CELLS	8	72
 8	0	1	4	3	9	10	13	12	
 8	1	2	5	4	10	11	14	13	
 8	4	5	8	7	13	14	17	16	
 8	3	4	7	6	12	13	16	15	
 8	9	10	13	12	18	19	22	21	
 8	10	11	14	13	19	20	23	22	
 8	13	14	17	16	22	23	26	25	
 8	12	13	16	15	21	22	25	24	

CELL_TYPES	8
 12
 12
 12
 12
 12
 12
 12
 12

POINT_DATA	27
VECTORS	u 	float 
0.0	0.0	0.0
-0.0144729208	0.0	0.0
-0.0285253761	0.0	0.0
0.0	-0.0113661641	0.0
-0.014509747	-0.0113970662	0.0
-0.0293114506	-0.0111548072	0.0
0.0	-0.021599378	0.0
-0.0146800528	-0.0237385024	0.0
-0.0292970324	-0.0213350272	0.0
-0.0216987947	-0.0152094899	-0.021731713
-0.0144283908	-0.0131233235	2.06274e-05
-0.0072636277	-0.0149120246	-0.0217307503
-0.0216300197	-0.0114483496	-0.0072288239
-0.0145499823	-0.0113764113	0.0145169588
-0.0074002778	-0.01119705	-0.0072622618
-0.0218099916	-0.0079491417	-0.0216418582
-0.0146385151	-0.0093724443	9.42773e-05
-0.0074878174	-0.0076984053	-0.0216728292
-0.1204128701	-0.1021042404	0.0402849183
-0.0144317719	-0.1015430956	0.0791639567
0.0916016687	-0.1018667697	0.0402464273
-0.1203582507	-0.0115597226	0.0687894169
-0.0145202304	-0.0113963505	0.107943552
0.0912850637	-0.0113004044	0.0687770391
-0.1206637365	0.0791084575	0.0403324303
-0.0146260975	0.0786302436	0.0792684621
0.0914211503	0.0793613558	0.0403083594

VECTORS	v 	float 
0.0	0.0	0.0
-5.51499e-05	0.0	0.0
-0.000108924	0.0	0.0
0.0	-8.77089e-05	0.0
-4.99363e-05	-7.94406e-05	0.0
-0.0001010838	-8.79245e-05	0.0
0.0	-0.0001758877	0.0
-5.50382e-05	-0.0001584843	0.0
-0.0001089751	-0.0001762872	0.0
-0.0002768449	-0.0003017819	0.0001260016
-5.19992e-05	-0.0003125817	8.54787e-05
0.000172542	-0.0003018666	0.0001264886
-0.0002735506	-8.27696e-05	0.0001094452
-5.31428e-05	-8.4417e-05	6.7514e-05
0.0001677223	-8.29013e-05	0.0001091012
-0.0002766451	0.0001362681	0.0001260863
-5.18776e-05	0.0001436851	8.55405e-05
0.0001726305	0.0001360312	0.0001264864
0.0003392651	0.0002874295	0.0002411967
-5.28867e-05	0.0002800401	4.5607e-06
-0.0004449097	0.0002871805	0.0002416621
0.0003506167	-8.37943e-05	3.99035e-05
-5.2257e-05	-8.33666e-05	-0.0001994461
-0.0004553903	-8.40098e-05	3.95889e-05
0.0003393644	-0.0004551638	0.0002416229
-5.26838e-05	-0.0004466536	4.2317e-06
-0.000444621	-0.0004553001	0.0002420306

VECTORS	a 	float 
0.0	0.0	0.0
-0.8966130578	0.0	0.0
-1.7925188245	0.0	0.0
0.0	-0.7175201063	0.0
-0.8936061992	-0.7145279938	0.0
-1.7878003285	-0.7175480006	0.0
0.0	-1.4337731285	0.0
-0.8974069263	-1.4299442185	0.0
-1.7943365578	-1.4338235795	0.0
-0.0028707493	-0.0028096344	3.0796122925
-0.8947912662	1.82304e-05	3.0827216031
-1.7869589758	-0.0023209185	3.0797834523
-0.0011399063	-0.7160002812	3.0803199553
-0.8957132809	-0.7164389849	3.0825490441
-1.7900384111	-0.71554899	3.0802050099
-0.0031115463	-1.4295354472	3.0798120242
-0.8950587795	-1.4326194384	3.0831675354
-1.787177634	-1.4291240015	3.0799469651
0.0040028124	0.0027394444	6.1567620268
-0.8953140238	0.0076210823	6.1682537646
-1.7945886455	0.0030911612	6.1571181597
0.0101547736	-0.7166769559	6.1638011745
-0.8951633416	-0.7162584123	6.1737263168
-1.8005455656	-0.7162826647	6.1634873535
0.0035787474	-1.4360321674	6.157201907
-0.8956369386	-1.4402017945	6.1683941112
-1.7948553113	-1.4355927626	6.1575287721

SCALARS	theta	float 1
LOOKUP_TABLE	default
297.61197566
297.597499648
297.609781787
297.5902273604
297.5713003381
297.5932651096
297.6175381048
297.5930865421
297.6156918156
300.8957376855
301.0349523927
300.8952219614
301.0010615764
301.1403153121
301.0001463541
300.8951626915
301.0365984677
300.8954623437
321.1725738413
321.5059816999
321.172951736
321.4194427068
321.7534328487
321.41984268
321.1730662525
321.5055684364
321.1728039568

SCALARS	sig_11	float	1
LOOKUP_TABLE	default
-14.7016288182
3.2686366066
-13.403782795
-2.0749871778
14.0522137031
-2.568785964
-14.1529703352
1.2104653846
-14.18974716
19.7239331554
30.5414082346
19.6423238618
28.7671557974
39.7753585808
28.797534451
19.3103720554
30.321807283
19.3010320183
-65.4972273362
-59.0254058374
-65.4797816531
-59.2174628429
-52.6901595136
-59.2245107546
-65.4205549958
-58.9943482111
-65.4169710914

SCALARS	sig_22	float	1
LOOKUP_TABLE	default
-16.6040228603
0.0922027801
-15.4000428141
-2.911797105
10.9178165008
-2.7686138184
-13.8916979433
-2.4439494411
-13.7498689382
15.0801497671
22.6362182603
15.0215763304
24.5178717731
32.3409115856
24.5307121112
14.8333743875
22.7719781989
14.8469064936
-50.8773106734
-46.2486689537
-50.8700827069
-44.1163897092
-39.4655539633
-44.1125319027
-50.7865075387
-46.3008706762
-50.7967683045

SCALARS	sig_33	float	1
LOOKUP_TABLE	default
-14.6716137002
28.1123331061
-13.925557898
14.9121112074
56.2686893221
14.72424714
-13.5371568012
26.9183047621
-13.56890754
31.3159570389
64.4079500338
31.2464733639
57.0930512289
90.4164097199
57.091290938
31.1811592126
64.4764451648
31.1602143564
-166.4176240645
-140.4598257099
-166.4665582418
-143.7580473433
-117.5575217411
-143.7341096999
-166.4244393276
-140.4268940529
-166.4015447046

SCALARS vonMises	float	1
LOOKUP_TABLE	default
35.0312681095
29.7653249118
34.5594271097
35.2375850111
37.9064397439
35.5246768488
35.0014468668
31.7221164982
35.1973883229
102.1349690479
96.3344505919
102.470222768
94.930286279
86.1195785727
94.8804761654
102.6664129397
95.9086735589
102.655560804
138.1812458272
128.7045528176
138.315145909
132.4839597252
123.5235817769
132.4488386267
138.428497019
128.5906810813
138.4045374448
