# vtk DataFile Version 2.0
Results
ASCII
DATASET UNSTRUCTURED_GRID
POINTS         27           float
0.0	0.0	0.0	
50.0	0.0	0.0	
100.0	0.0	0.0	
0.0	40.0	0.0	
50.0	40.0	0.0	
100.0	40.0	0.0	
0.0	80.0	0.0	
50.0	80.0	0.0	
100.0	80.0	0.0	
0.0	0.0	70.0	
50.0	0.0	70.0	
100.0	0.0	70.0	
0.0	40.0	70.0	
50.0	40.0	70.0	
100.0	40.0	70.0	
0.0	80.0	70.0	
50.0	80.0	70.0	
100.0	80.0	70.0	
0.0	0.0	140.0	
50.0	0.0	140.0	
100.0	0.0	140.0	
0.0	40.0	140.0	
50.0	40.0	140.0	
100.0	40.0	140.0	
0.0	80.0	140.0	
50.0	80.0	140.0	
100.0	80.0	140.0	

CELLS	8	72
 8	0	1	4	3	9	10	13	12	
 8	1	2	5	4	10	11	14	13	
 8	4	5	8	7	13	14	17	16	
 8	3	4	7	6	12	13	16	15	
 8	9	10	13	12	18	19	22	21	
 8	10	11	14	13	19	20	23	22	
 8	13	14	17	16	22	23	26	25	
 8	12	13	16	15	21	22	25	24	

CELL_TYPES	8
 12
 12
 12
 12
 12
 12
 12
 12

POINT_DATA	27
VECTORS	u 	float 
0.0	0.0	0.0
0.0015896868	0.0	0.0
0.0033030048	0.0	0.0
0.0	0.0072030451	0.0
0.0014830793	0.0071496419	0.0
0.0028867725	0.0074915613	0.0
0.0	0.0156476041	0.0
0.0012987291	0.0132895815	0.0
0.002381723	0.0160983402	0.0
0.0205845198	0.0285658053	-0.0309103431
0.0016089173	0.033207714	-0.0093661316
-0.0174061856	0.028955168	-0.0309422097
0.0206662604	0.0070764991	-0.0178204512
0.0014665132	0.0071910528	0.0031493654
-0.0177211541	0.0074191959	-0.0178982555
0.020405261	-0.0147041331	-0.0308007275
0.0013275882	-0.0185360899	-0.0092456504
-0.0177043775	-0.0143657514	-0.0308570362
-0.1288861999	-0.1103883741	0.0006961577
0.0016420805	-0.1052189807	0.0610170318
0.1321974203	-0.1100582795	0.0006256153
-0.1279986823	0.006933406	0.0485125479
0.0015105488	0.0071449246	0.1085990488
0.1310129046	0.0072815285	0.0484688097
-0.1292134152	0.1243923066	0.0007828004
0.0013763153	0.1193704357	0.061152312
0.1319487304	0.1247300672	0.0007237448

VECTORS	v 	float 
0.0	0.0	0.0
0.0021178162	0.0	0.0
0.0042387606	0.0	0.0
0.0	0.0017183635	0.0
0.0021152171	0.0017149225	0.0
0.0042283849	0.0017209954	0.0
0.0	0.0034485077	0.0
0.0021160757	0.0034198978	0.0
0.0042315085	0.0034521476	0.0
-9.63497e-05	-1.65279e-05	-0.0079758443
0.0021170294	1.42702e-05	-0.0077353045
0.0043296728	-1.34053e-05	-0.0079761432
-9.52259e-05	0.0017157368	-0.0078203281
0.002116345	0.001717155	-0.0075814094
0.0043282868	0.0017183594	-0.0078207395
-9.7524e-05	0.0034453674	-0.007975147
0.0021147538	0.0034227095	-0.0077345654
0.004327195	0.0034479734	-0.0079756868
-0.0013370021	-0.0011360201	-0.0151164016
0.0021175606	-0.0011161979	-0.0146054896
0.0055726312	-0.0011333334	-0.0151173708
-0.001333857	0.0017150605	-0.0147325758
0.0021163315	0.001716575	-0.0142192516
0.00556625	0.0017179638	-0.0147324739
-0.0013397761	0.0045674859	-0.0151163912
0.0021153531	0.0045480046	-0.0146041061
0.0055705285	0.0045702876	-0.0151171034

VECTORS	a 	float 
0.0	0.0	0.0
0.7574285201	0.0	0.0
1.5144997321	0.0	0.0
0.0	0.606550128	0.0
0.7562170224	0.605281493	0.0
1.5127349938	0.6065531383	0.0
0.0	1.2125746546	0.0
0.7577100185	1.210948445	0.0
1.5151903238	1.2125755732	0.0
0.0035319364	0.0039391228	-2.6038923908
0.7566901355	0.0033035475	-2.6045548013
1.5099635569	0.0037456589	-2.6039527576
0.0032028461	0.6058970555	-2.6038309444
0.7570567332	0.6060895846	-2.6042989225
1.5107902479	0.6057257389	-2.603781381
0.003612824	1.2079993261	-2.6039566511
0.7567966718	1.2087507345	-2.6047435127
1.5100533322	1.2078540281	-2.6040096435
-0.0058939832	-0.0047847752	-5.2040128969
0.756897344	-0.0057349069	-5.2051727031
1.5196594473	-0.0049167798	-5.2041434555
-0.0075758816	0.6061777058	-5.2036890074
0.7568326801	0.6060097126	-5.204409203
1.5212849902	0.6060231728	-5.203567597
-0.0057105625	1.2171210639	-5.2041950161
0.7570255535	1.2177823974	-5.2052144504
1.519756916	1.2169413947	-5.2043200828

SCALARS	theta	float 1
LOOKUP_TABLE	default
302.6598034874
302.3695956428
302.6438012638
302.5386809747
302.2803161784
302.5358623798
302.6340157214
302.4004845535
302.6364316824
294.3862116452
294.0679166398
294.3883123111
294.1967919547
293.8738770863
294.1968682578
294.392404981
294.0650378374
294.3921135509
327.5197546551
327.0860857488
327.5198734521
327.2335468402
326.7997928759
327.233484669
327.518197531
327.0862168134
327.5182013417

SCALARS	sig_11	float	1
LOOKUP_TABLE	default
-85.1592853533
-60.4440197707
-84.1166269377
-70.1990526903
-47.6791130796
-70.1020514842
-84.3155773052
-63.3183279143
-84.8658850209
60.6871334421
89.7136282273
60.6183404714
85.6041391718
114.6735023393
85.5931958069
60.2014002473
89.4564533949
60.220765345
-145.0864275292
-107.5564149382
-145.0870969949
-110.2631460742
-72.6523130646
-110.2508106847
-144.9794103981
-107.5145711144
-144.9984130285

SCALARS	sig_22	float	1
LOOKUP_TABLE	default
-74.643203361
-52.3038598496
-73.1388926922
-58.3750337389
-39.6446121075
-57.6210410211
-71.2983844883
-55.5524535722
-71.0764578323
47.2468873587
67.8648257841
47.2159832356
73.0123836207
93.792463465
73.0367702837
46.9497515883
68.0284761898
47.0055337923
-116.7816622606
-89.5437612813
-116.79913099
-80.0731711204
-52.8018969951
-80.069254994
-116.6640163153
-89.6036954626
-116.7039706652

SCALARS	sig_33	float	1
LOOKUP_TABLE	default
-125.0937978651
-75.7199033581
-124.282636779
-94.797014119
-47.8146583016
-94.654442613
-123.4612170938
-77.5190086132
-123.7102227929
85.8043846368
149.1485669491
85.7091125356
138.7071002305
201.9689832563
138.6604025657
85.6595382291
149.2347135779
85.620483726
-329.2666629084
-247.4774932137
-329.3247762904
-252.9978876486
-170.991860895
-252.9485950133
-329.2315511731
-247.4544985221
-329.233305659

SCALARS vonMises	float	1
LOOKUP_TABLE	default
109.0570056167
93.9547565037
109.7769858595
79.8981998152
54.1659513381
79.9976647956
110.9193720119
92.686257339
110.7471701007
223.0370071084
185.150901962
223.4269184766
178.9684842788
128.74913193
178.9950998992
223.7756132164
184.2286783863
223.6617496343
234.2585857578
203.5809980515
234.3550608667
214.8570398887
185.4652010422
214.8512857387
234.5276262441
203.4417688012
234.4676779915
