# vtk DataFile Version 2.0
Results
ASCII
DATASET UNSTRUCTURED_GRID
POINTS         27           float
0.0	0.0	0.0	
50.0	0.0	0.0	
100.0	0.0	0.0	
0.0	40.0	0.0	
50.0	40.0	0.0	
100.0	40.0	0.0	
0.0	80.0	0.0	
50.0	80.0	0.0	
100.0	80.0	0.0	
0.0	0.0	70.0	
50.0	0.0	70.0	
100.0	0.0	70.0	
0.0	40.0	70.0	
50.0	40.0	70.0	
100.0	40.0	70.0	
0.0	80.0	70.0	
50.0	80.0	70.0	
100.0	80.0	70.0	
0.0	0.0	140.0	
50.0	0.0	140.0	
100.0	0.0	140.0	
0.0	40.0	140.0	
50.0	40.0	140.0	
100.0	40.0	140.0	
0.0	80.0	140.0	
50.0	80.0	140.0	
100.0	80.0	140.0	

CELLS	8	72
 8	0	1	4	3	9	10	13	12	
 8	1	2	5	4	10	11	14	13	
 8	4	5	8	7	13	14	17	16	
 8	3	4	7	6	12	13	16	15	
 8	9	10	13	12	18	19	22	21	
 8	10	11	14	13	19	20	23	22	
 8	13	14	17	16	22	23	26	25	
 8	12	13	16	15	21	22	25	24	

CELL_TYPES	8
 12
 12
 12
 12
 12
 12
 12
 12

POINT_DATA	27
VECTORS	u 	float 
0.0	0.0	0.0
-0.0134235212	0.0	0.0
-0.0264543764	0.0	0.0
0.0	-0.0097804008	0.0
-0.0134693627	-0.0098088074	0.0
-0.0272079915	-0.0095560045	0.0
0.0	-0.0183895671	0.0
-0.013642939	-0.0205926107	0.0
-0.027255491	-0.0180999211	0.0
-0.0169533984	-0.0100076592	-0.0236303068
-0.013380937	-0.0076475428	-0.0012417061
-0.0099087009	-0.0096943245	-0.0236326609
-0.0169184568	-0.0098655774	-0.0088936146
-0.0135069847	-0.0097884293	0.013442362
-0.0100320756	-0.0095999508	-0.0089318581
-0.0170743913	-0.0099941999	-0.023535671
-0.0136028393	-0.0116630777	-0.0011632455
-0.0101446081	-0.0097295133	-0.02356994
-0.1255956226	-0.106549173	0.0363071511
-0.0133808216	-0.1055961772	0.0794540648
0.098884536	-0.1062977085	0.0362646809
-0.1255179927	-0.0099827181	0.0684068062
-0.0134756113	-0.0098107498	0.111796653
0.0985369704	-0.0097089017	0.0683909326
-0.1258591049	0.0867116303	0.0363589714
-0.0135863142	0.085849898	0.0795642301
0.098692972	0.0869785369	0.0363310037

VECTORS	v 	float 
0.0	0.0	0.0
-8.00207e-05	0.0	0.0
-0.0001566652	0.0	0.0
0.0	-0.0001230221	0.0
-8.76504e-05	-0.0001399764	0.0
-0.0001778679	-0.00012569	0.0
0.0	-0.0002518943	0.0
-7.92511e-05	-0.0002749662	0.0
-0.00015323	-0.0002570502	0.0
-0.0003508252	-0.0003969851	0.0001264228
-8.54842e-05	-0.0004269002	8.0999e-05
0.0001791149	-0.0003995703	0.0001262237
-0.0003496815	-0.000132584	0.000111709
-8.28666e-05	-0.0001303073	7.79162e-05
0.0001844973	-0.0001346991	0.0001136117
-0.0003496128	0.0001332501	0.0001256232
-8.35115e-05	0.0001646716	8.04653e-05
0.0001812707	0.0001314663	0.0001255402
0.0003593465	0.0003131434	0.0003104502
-8.47574e-05	0.000252106	-4.95264e-05
-0.0005288502	0.0003111079	0.0003109227
0.0003307373	-0.0001297634	1.56049e-05
-8.47592e-05	-0.0001321227	-0.0003341605
-0.0005002118	-0.0001319617	1.66314e-05
0.0003614545	-0.0005732126	0.0003093232
-8.31716e-05	-0.0005156122	-4.98012e-05
-0.0005274554	-0.0005754526	0.0003098229

VECTORS	a 	float 
0.0	0.0	0.0
0.8962329575	0.0	0.0
1.7917253359	0.0	0.0
0.0	0.717320306	0.0
0.8936057475	0.7150559874	0.0
1.7878200507	0.7174125644	0.0
0.0	1.4335222314	0.0
0.8970094509	1.4308731065	0.0
1.7934448372	1.4336958041	0.0
0.002540593	0.0030088842	-3.0796538351
0.8946637464	0.0005660395	-3.0826051012
1.787040871	0.0025876402	-3.0798027197
0.0009108843	0.7162198044	-3.0803161262
0.8954766019	0.7165429947	-3.0827299621
1.7897966761	0.7158212347	-3.0802626754
0.0027558087	1.4297364533	-3.0798289261
0.8948820137	1.4322857004	-3.0830343462
1.7872044495	1.4293652806	-3.079947911
-0.0040873701	-0.0029527184	-6.1575198497
0.8951363008	-0.0065904483	-6.1666940746
1.7943230839	-0.0032581171	-6.1578726459
-0.009069737	0.7167865969	-6.1630056111
0.8950068645	0.7164456694	-6.1709610457
1.7991367785	0.7164445338	-6.162729194
-0.003717254	1.4364747542	-6.1579153098
0.8954231923	1.4395295286	-6.1668373087
1.7945617652	1.4360914804	-6.1582412232

SCALARS	theta	float 1
LOOKUP_TABLE	default
298.0888266655
298.0513756494
298.0848360825
298.0553110192
298.0130280289
298.058934281
298.0950271709
298.0468933769
298.0924278645
299.9593808971
300.0915484541
299.9589767288
300.0790442713
300.2109608204
300.0779083937
299.9586772696
300.0935835099
299.9591577936
322.5233936039
322.8725764068
322.5238503907
322.8151294576
323.1650281343
322.8156881462
322.5240550583
322.8718796957
322.5236750279

SCALARS	sig_11	float	1
LOOKUP_TABLE	default
-23.7371074973
-4.8540636788
-22.4485087948
-10.7646048917
6.2681852889
-11.2100717118
-23.1935338795
-6.9901896365
-23.2764682815
26.6420724977
39.1230525318
26.5630011058
36.9057105493
49.5723983053
36.9332458325
26.2158621028
38.8935147573
26.209246906
-75.9328419129
-67.0628314358
-75.9179858153
-67.7474869956
-58.8186787103
-67.7538676401
-75.8543637207
-67.0284349767
-75.8524061201

SCALARS	sig_22	float	1
LOOKUP_TABLE	default
-24.1135966658
-6.6113714533
-22.85608659
-10.046689921
4.5070188536
-9.8478013554
-21.3235719293
-9.2336396592
-21.1584621495
20.630218189
29.3230647749
20.5761748844
31.2885739115
40.2490675449
31.3041294507
20.3761640674
29.4616298441
20.3945338364
-59.2080663105
-52.9403589415
-59.2039134417
-50.4682377868
-44.1773581989
-50.465752045
-59.11500539
-52.9925398169
-59.1276276253

SCALARS	sig_33	float	1
LOOKUP_TABLE	default
-27.1610487412
17.2848083257
-26.395926365
3.0350620599
45.9913141807
2.8675490156
-25.9995763225
16.048685323
-26.0417277483
41.9398777979
79.1091907367
41.8700717018
70.9663148558
108.350309565
70.9615663141
41.8033209313
79.1782786025
41.7803891378
-189.6459517596
-157.1600290805
-189.6981696212
-161.1900950627
-128.456717066
-161.1654752389
-189.6525461806
-157.1237242974
-189.6307844109

SCALARS vonMises	float	1
LOOKUP_TABLE	default
22.9230279602
24.5343711769
22.6927446077
26.9456049008
36.4894402593
27.2258058822
23.8839180458
26.3332496361
24.1553024437
118.5225366489
109.2546455274
118.9111246666
106.8858551559
94.0947825377
106.8299322797
119.1709344722
108.7236577057
119.1482781146
154.1601727431
142.1468885008
154.2928748119
146.9794258949
135.6919897154
146.9483155706
154.4139881914
142.0276967068
154.3854175967
