# vtk DataFile Version 2.0
Results
ASCII
DATASET UNSTRUCTURED_GRID
POINTS         27           float
0.0	0.0	0.0	
50.0	0.0	0.0	
100.0	0.0	0.0	
0.0	40.0	0.0	
50.0	40.0	0.0	
100.0	40.0	0.0	
0.0	80.0	0.0	
50.0	80.0	0.0	
100.0	80.0	0.0	
0.0	0.0	70.0	
50.0	0.0	70.0	
100.0	0.0	70.0	
0.0	40.0	70.0	
50.0	40.0	70.0	
100.0	40.0	70.0	
0.0	80.0	70.0	
50.0	80.0	70.0	
100.0	80.0	70.0	
0.0	0.0	140.0	
50.0	0.0	140.0	
100.0	0.0	140.0	
0.0	40.0	140.0	
50.0	40.0	140.0	
100.0	40.0	140.0	
0.0	80.0	140.0	
50.0	80.0	140.0	
100.0	80.0	140.0	

CELLS	8	72
 8	0	1	4	3	9	10	13	12	
 8	1	2	5	4	10	11	14	13	
 8	4	5	8	7	13	14	17	16	
 8	3	4	7	6	12	13	16	15	
 8	9	10	13	12	18	19	22	21	
 8	10	11	14	13	19	20	23	22	
 8	13	14	17	16	22	23	26	25	
 8	12	13	16	15	21	22	25	24	

CELL_TYPES	8
 12
 12
 12
 12
 12
 12
 12
 12

POINT_DATA	27
VECTORS	u 	float 
0.0	0.0	0.0
0.0019409751	0.0	0.0
0.0039973537	0.0	0.0
0.0	0.0074211044	0.0
0.0018384631	0.0073686054	0.0
0.0036027252	0.0077022093	0.0
0.0	0.016049531	0.0
0.0016560751	0.0137561379	0.0
0.0030985987	0.0164901114	0.0
0.0208610593	0.028613055	-0.0301188883
0.0019604196	0.0331754799	-0.0092631596
-0.0169775851	0.0289929653	-0.0301504558
0.0209423257	0.0072970355	-0.0174751924
0.0018211227	0.0074090793	0.00281192
-0.0172890659	0.0076317273	-0.0175515675
0.0206856396	-0.0143024858	-0.0300121639
0.0016859139	-0.0180755916	-0.0091445442
-0.0172684885	-0.0139720685	-0.0300672239
-0.1249094956	-0.1070140589	-0.0001968612
0.0019929479	-0.1018911175	0.0586510471
0.1289212072	-0.1066916725	-0.0002656629
-0.1240270836	0.0071572148	0.0465004897
0.0018645872	0.007363542	0.1051113249
0.1277499574	0.0074970024	0.0464571945
-0.1252288501	0.1214618573	-0.0001116726
0.0017334035	0.1164835251	0.0587832449
0.1286783804	0.1217915412	-0.000169378

VECTORS	v 	float 
0.0	0.0	0.0
-0.0023523888	0.0	0.0
-0.0047009996	0.0	0.0
0.0	-0.0018610998	0.0
-0.0023520985	-0.0018628334	0.0
-0.0047066994	-0.0018593367	0.0
0.0	-0.0037103869	0.0
-0.0023556353	-0.0037352074	0.0
-0.0047105565	-0.003708343	0.0
-9.11012e-05	-1.75143e-05	0.0074374984
-0.0023517193	1.07866e-05	0.0076697979
-0.004613423	-1.42374e-05	0.0074375543
-8.76547e-05	-0.0018630883	0.0075857076
-0.0023532779	-0.0018619666	0.007817241
-0.0046182545	-0.0018602034	0.007585587
-9.25646e-05	-0.0037114114	0.0074386105
-0.0023539206	-0.0037321602	0.0076709453
-0.0046156204	-0.0037084729	0.0074383169
-0.0013161524	-0.0011162414	0.0156928676
-0.0023518913	-0.0011014886	0.0161878774
-0.0033872606	-0.0011134175	0.0156929393
-0.0013118044	-0.00186433	0.016068734
-0.0023529164	-0.0018626123	0.0165643646
-0.0033941532	-0.0018613015	0.0160683793
-0.0013189984	-0.0026111794	0.015693667
-0.0023542508	-0.0026248887	0.0161891547
-0.0033895122	-0.0026082161	0.0156937951

VECTORS	a 	float 
0.0	0.0	0.0
-0.7305825455	0.0	0.0
-1.4608120388	0.0	0.0
0.0	-0.5850410457	0.0
-0.7293895364	-0.5837843062	0.0
-1.4590770195	-0.5850386783	0.0
0.0	-1.1695561361	0.0
-0.7308551459	-1.1679569599	0.0
-1.4614891289	-1.1695471631	0.0
-0.0034835993	-0.0038473066	2.5113894487
-0.729853549	-0.0031910993	2.5121113447
-1.4563365346	-0.0036545868	2.5114475332
-0.0031683743	-0.5843928208	2.5113752553
-0.7302147206	-0.5845832098	2.5118974046
-1.4571424545	-0.5842229109	2.5113239936
-0.0035628662	-1.1650820979	2.5114512389
-0.729960672	-1.1658496497	2.5122976957
-1.4564281343	-1.1649386221	2.511502603
0.0057024041	0.0046080466	5.0190986685
-0.7300563154	0.0055958824	5.0204200902
-1.4657850065	0.0047394149	5.0192228055
0.0073768983	-0.5846699469	5.0188788785
-0.7299930611	-0.5845031721	5.0197715977
-1.4674075913	-0.5845159772	5.0187602853
0.0055192568	-1.1739281176	5.019276027
-0.7301837591	-1.1746315058	5.0204626189
-1.4658817325	-1.1737492446	5.0193958797

SCALARS	theta	float 1
LOOKUP_TABLE	default
302.6954821976
302.4064503154
302.6795089637
302.5751883584
302.3185309031
302.5723745788
302.6692479233
302.4377409206
302.6716828423
294.4330250878
294.1106438869
294.4351791031
294.2392791783
293.912205111
294.2393667686
294.4393028552
294.1076285804
294.4390155868
326.7891011496
326.3442787742
326.7891693135
326.4925299279
326.0476799523
326.4924697244
326.7874891993
326.3444710811
326.7874819061

SCALARS	sig_11	float	1
LOOKUP_TABLE	default
-84.0175684279
-59.9140025381
-83.01361906
-69.4667756646
-47.4989308444
-69.357343057
-83.1889495823
-62.7182755428
-83.7362487472
59.5711869333
88.1408242829
59.50477896
84.1282556152
112.7363687398
84.1164590138
59.0990639323
87.8904581771
59.118584217
-142.339742555
-105.2066169793
-142.3409704825
-107.8440484571
-70.6304047756
-107.8313022807
-142.2357064368
-105.1656901783
-142.254897468

SCALARS	sig_22	float	1
LOOKUP_TABLE	default
-73.564594485
-51.7917109522
-72.1007368956
-57.7388926562
-39.4789835975
-56.9917501217
-70.3071794004
-54.9565134867
-70.0926323196
46.376855647
66.6908513244
46.3474487024
71.7546050049
92.2235914973
71.7783935003
46.0879986537
66.8497294941
46.143125475
-114.630493721
-87.6492752104
-114.6483219513
-78.2984581319
-51.283192071
-78.2943620489
-114.5160496664
-87.7074552881
-114.5558835885

SCALARS	sig_33	float	1
LOOKUP_TABLE	default
-123.6823481283
-75.7246184501
-122.8957622526
-94.3216461363
-48.7020929644
-94.1735124047
-122.0860602432
-77.4837680244
-122.3349333294
84.0537853704
146.0956540206
83.9605341544
135.9344204376
197.8919611961
135.8880356786
83.9132189595
146.1790574778
83.8748153445
-322.5556122819
-242.0573872572
-322.6125100431
-247.4214787119
-166.7089658892
-247.3725137724
-322.5209717868
-242.0350066224
-322.5237453435

SCALARS vonMises	float	1
LOOKUP_TABLE	default
108.5581713292
93.281224915
109.2547403547
79.5873727015
53.4945842349
79.6847174245
110.3585898562
92.0357024326
110.1933412488
218.7269839016
181.322037017
219.1045885704
175.2736004108
125.6045550073
175.3001736565
219.4441882658
180.4217796986
219.3346741196
228.9700512084
198.7366749649
229.0623450526
209.8392416131
180.8453158645
209.8344692805
229.231729682
198.6005584813
229.1726650683
