# vtk DataFile Version 2.0
Results
ASCII
DATASET UNSTRUCTURED_GRID
POINTS         27           float
0.0	0.0	0.0	
50.0	0.0	0.0	
100.0	0.0	0.0	
0.0	40.0	0.0	
50.0	40.0	0.0	
100.0	40.0	0.0	
0.0	80.0	0.0	
50.0	80.0	0.0	
100.0	80.0	0.0	
0.0	0.0	70.0	
50.0	0.0	70.0	
100.0	0.0	70.0	
0.0	40.0	70.0	
50.0	40.0	70.0	
100.0	40.0	70.0	
0.0	80.0	70.0	
50.0	80.0	70.0	
100.0	80.0	70.0	
0.0	0.0	140.0	
50.0	0.0	140.0	
100.0	0.0	140.0	
0.0	40.0	140.0	
50.0	40.0	140.0	
100.0	40.0	140.0	
0.0	80.0	140.0	
50.0	80.0	140.0	
100.0	80.0	140.0	

CELLS	8	72
 8	0	1	4	3	9	10	13	12	
 8	1	2	5	4	10	11	14	13	
 8	4	5	8	7	13	14	17	16	
 8	3	4	7	6	12	13	16	15	
 8	9	10	13	12	18	19	22	21	
 8	10	11	14	13	19	20	23	22	
 8	13	14	17	16	22	23	26	25	
 8	12	13	16	15	21	22	25	24	

CELL_TYPES	8
 12
 12
 12
 12
 12
 12
 12
 12

POINT_DATA	27
VECTORS	u 	float 
0.0	0.0	0.0
-0.0010053075	0.0	0.0
-0.0017007767	0.0	0.0
0.0	-0.0026061615	0.0
-0.0010107577	-0.0026287134	0.0
-0.0022436837	-0.0025009922	0.0
0.0	-0.0045926357	0.0
-0.0011076219	-0.0057780833	0.0
-0.0021174293	-0.0044806389	0.0
-0.0255006376	-0.0229005297	0.0064189083
-0.0009746377	-0.0220460281	0.0180659737
0.0234777723	-0.0227497464	0.0064259279
-0.0254798586	-0.0026483699	0.0146485209
-0.0010401295	-0.0026150953	0.0263701802
0.0234543323	-0.0025219168	0.0146367573
-0.0255482938	0.0174593096	0.006462462
-0.0010806016	0.0169547197	0.0180983912
0.0233610239	0.0175867539	0.0064491659
-0.059409167	-0.0505997971	0.0643894369
-0.0009827124	-0.0507806393	0.0765930183
0.0574784847	-0.0504809349	0.0643736006
-0.059599257	-0.0027029378	0.0722856197
-0.0010249532	-0.0026193857	0.084709502
0.0575239148	-0.0025719705	0.0722848879
-0.0595379979	0.0452618006	0.0644057228
-0.0010803344	0.0454770699	0.0766423778
0.057388797	0.045389757	0.0643986451

VECTORS	v 	float 
0.0	0.0	0.0
7.90951e-05	0.0	0.0
0.0001615856	0.0	0.0
0.0	5.43018e-05	0.0
8.82395e-05	6.41291e-05	0.0
0.0001735192	5.45115e-05	0.0
0.0	0.0001135086	0.0
7.69608e-05	0.0001245536	0.0
0.0001557968	0.0001140832	0.0
7.88006e-05	4.62719e-05	5.90899e-05
8.47192e-05	5.33902e-05	5.1075e-05
8.9598e-05	4.7955e-05	5.94401e-05
8.31743e-05	5.9288e-05	5.05674e-05
8.18247e-05	5.77365e-05	4.097e-05
8.15844e-05	6.07471e-05	5.0076e-05
7.82829e-05	7.10031e-05	5.96401e-05
8.37536e-05	6.33179e-05	5.28075e-05
8.86668e-05	7.21932e-05	5.99568e-05
0.0001732124	0.000138112	3.04732e-05
8.30853e-05	0.0001467891	2.04737e-05
-6.6824e-06	0.000139025	3.13182e-05
0.0001888014	5.6975e-05	1.87981e-05
8.36738e-05	5.83347e-05	5.6005e-06
-2.19478e-05	5.80978e-05	1.78358e-05
0.0001718072	-2.3945e-05	3.20753e-05
8.22489e-05	-3.0476e-05	2.09992e-05
-7.2287e-06	-2.25879e-05	3.28873e-05

VECTORS	a 	float 
0.0	0.0	0.0
-0.8939360182	0.0	0.0
-1.7836132411	0.0	0.0
0.0	-0.7226640673	0.0
-0.8836501537	-0.7122335861	0.0
-1.7708935236	-0.7224716296	0.0
0.0	-1.4390232703	0.0
-0.8967713106	-1.4292435508	0.0
-1.7910465046	-1.4386244946	0.0
0.0077357437	-0.0092483977	3.0683765444
-0.887539046	0.0032736634	3.0868467804
-1.7841224757	-0.0070480119	3.0689306497
0.0158690465	-0.7174727854	3.0770668778
-0.8909278644	-0.7189697763	3.0927873195
-1.7963987478	-0.7155362513	3.0765655843
0.0068812055	-1.4273941922	3.0692572907
-0.8888271847	-1.4396832424	3.0887075373
-1.7852820824	-1.4257262782	3.0696351165
0.0037242209	0.002213968	6.157398885
-0.8893461225	0.017172243	6.193492974
-1.781983922	0.0037529486	6.1585140495
0.026483641	-0.7201694206	6.1774161429
-0.8889059814	-0.7184158903	6.2088779495
-1.8048443452	-0.7183821573	6.1763203704
0.0016837686	-1.4421558132	6.1592618464
-0.8907640931	-1.4545001125	6.1941430771
-1.7831048947	-1.4401246605	6.1602722952

SCALARS	theta	float 1
LOOKUP_TABLE	default
299.417119698
299.4645200454
299.4200356784
299.4397170313
299.4824737161
299.4395860216
299.4206395797
299.4601120534
299.4205314054
305.1263112735
305.1498660919
305.1260148816
305.1369249529
305.1613806276
305.1370617748
305.1253485081
305.15016309
305.125342709
311.5184471531
311.527189963
311.5183741732
311.5201160751
311.5288986756
311.5200411569
311.5186739895
311.5272050397
311.5187017124

SCALARS	sig_11	float	1
LOOKUP_TABLE	default
14.1532171012
23.244902933
14.9531219278
21.0327750974
29.0404629678
20.6497972811
14.4860120267
22.1581812201
14.5520818985
-7.0091979754
-3.2358316378
-7.066831265
-4.0279065538
-0.1303545268
-4.0056550211
-7.2331090066
-3.3503213311
-7.244977452
-14.5467803183
-14.3243855675
-14.5299191016
-14.6272472818
-14.3794794248
-14.6328723256
-14.5060923837
-14.3111535632
-14.5001817941

SCALARS	sig_22	float	1
LOOKUP_TABLE	default
9.1268219251
17.5937453571
9.7520595965
16.5712487542
23.4699711066
16.5643356391
10.6224170951
16.2271113979
10.666334518
-5.9759227985
-3.3956661791
-6.0232026959
-2.8985619834
-0.158188165
-2.8970779007
-6.1084204309
-3.3166711297
-6.1104896015
-10.49012639
-10.3138986226
-10.4782789174
-10.6815588563
-10.4976662779
-10.6766085549
-10.4401257513
-10.3445935586
-10.4409015121

SCALARS	sig_33	float	1
LOOKUP_TABLE	default
23.091387633
45.4148894909
23.4996872801
39.5673941603
61.1654432635
39.4253778294
23.7165330178
44.785337769
23.7218316623
-9.4703861742
1.353168039
-9.5172923285
-1.8091436177
9.1836230807
-1.8070745601
-9.5453103028
1.395283733
-9.5557599437
-41.9625156184
-41.1053358968
-41.9844671726
-42.5463728225
-41.5565118048
-42.5322870562
-41.9709982487
-41.0904848874
-41.9528295685

SCALARS vonMises	float	1
LOOKUP_TABLE	default
60.0646947236
45.0892700975
59.6494890442
48.6160330707
31.8580611345
48.8252155068
59.5433282528
46.0581805016
59.5964867185
40.55068608
37.0145351595
40.4707347342
38.615341078
35.9534845229
38.6531338182
40.4483408719
37.1642660849
40.4562389299
42.9489987871
43.0465452948
43.0327210307
43.1943554691
43.2414171701
43.1627844222
43.0885087259
42.989828306
43.0822415217
