# vtk DataFile Version 2.0
Results
ASCII
DATASET UNSTRUCTURED_GRID
POINTS         27           float
0.0	0.0	0.0	
50.0	0.0	0.0	
100.0	0.0	0.0	
0.0	40.0	0.0	
50.0	40.0	0.0	
100.0	40.0	0.0	
0.0	80.0	0.0	
50.0	80.0	0.0	
100.0	80.0	0.0	
0.0	0.0	70.0	
50.0	0.0	70.0	
100.0	0.0	70.0	
0.0	40.0	70.0	
50.0	40.0	70.0	
100.0	40.0	70.0	
0.0	80.0	70.0	
50.0	80.0	70.0	
100.0	80.0	70.0	
0.0	0.0	140.0	
50.0	0.0	140.0	
100.0	0.0	140.0	
0.0	40.0	140.0	
50.0	40.0	140.0	
100.0	40.0	140.0	
0.0	80.0	140.0	
50.0	80.0	140.0	
100.0	80.0	140.0	

CELLS	8	72
 8	0	1	4	3	9	10	13	12	
 8	1	2	5	4	10	11	14	13	
 8	4	5	8	7	13	14	17	16	
 8	3	4	7	6	12	13	16	15	
 8	9	10	13	12	18	19	22	21	
 8	10	11	14	13	19	20	23	22	
 8	13	14	17	16	22	23	26	25	
 8	12	13	16	15	21	22	25	24	

CELL_TYPES	8
 12
 12
 12
 12
 12
 12
 12
 12

POINT_DATA	27
VECTORS	u 	float 
0.0	0.0	0.0
-0.0079765059	0.0	0.0
-0.0155650984	0.0	0.0
0.0	-0.0084137691	0.0
-0.0079840086	-0.008441742	0.0
-0.0162460113	-0.0082791169	0.0
0.0	-0.0160364022	0.0
-0.0081082548	-0.0175470009	0.0
-0.0160966667	-0.0158904696	0.0
-0.0306629542	-0.0271928825	-0.002384547
-0.0079375739	-0.0260848386	0.0125310597
0.0146951309	-0.0269995268	-0.0023763255
-0.0306218015	-0.0084681806	0.0080914023
-0.0080213941	-0.0084253315	0.0230940799
0.0146473644	-0.0083061041	0.0080757588
-0.0307253089	0.0100723444	-0.0023275825
-0.0080733929	0.0094120187	0.0125744921
0.014546502	0.0102354804	-0.0023447562
-0.0768523102	-0.0653922218	0.0602860307
-0.0079474957	-0.0655939372	0.077187809
0.0610011055	-0.0652399658	0.0602652302
-0.077045833	-0.0085395526	0.0714667855
-0.0080016617	-0.0084324295	0.0886426396
0.0610106156	-0.0083719391	0.0714650648
-0.0770173236	0.0483998587	0.0603093898
-0.0080724037	0.0486462431	0.0772529873
0.0608865145	0.0485634532	0.0602996657

VECTORS	v 	float 
0.0	0.0	0.0
7.92868e-05	0.0	0.0
0.000161431	0.0	0.0
0.0	5.52224e-05	0.0
8.59646e-05	6.1251e-05	0.0
0.0001694273	5.48998e-05	0.0
0.0	0.0001132316	0.0
7.75107e-05	0.0001205332	0.0
0.0001571506	0.0001128758	0.0
5.65441e-05	2.57541e-05	8.91649e-05
8.33524e-05	3.21666e-05	6.72167e-05
0.0001092543	2.68776e-05	8.95312e-05
6.35398e-05	5.81749e-05	7.2294e-05
8.12733e-05	5.72878e-05	4.89802e-05
9.99614e-05	5.91983e-05	7.21046e-05
5.61116e-05	8.9776e-05	8.96522e-05
8.27522e-05	8.31132e-05	6.84992e-05
0.0001087719	9.06119e-05	8.9937e-05
0.0002105947	0.0001759839	5.89446e-05
8.21972e-05	0.0001845527	1.60435e-05
-4.59241e-05	0.0001768552	5.98504e-05
0.0002262727	5.6538e-05	2.4114e-05
8.25162e-05	5.74767e-05	-2.20477e-05
-6.16266e-05	5.75626e-05	2.33792e-05
0.0002093569	-6.28157e-05	6.02188e-05
8.13285e-05	-6.97723e-05	1.63798e-05
-4.66013e-05	-6.15873e-05	6.10129e-05

VECTORS	a 	float 
0.0	0.0	0.0
-0.8944467068	0.0	0.0
-1.7862717444	0.0	0.0
0.0	-0.7206637681	0.0
-0.886925922	-0.7126892805	0.0
-1.7760680238	-0.7205170046	0.0
0.0	-1.4371548224	0.0
-0.8964009985	-1.4285122222	0.0
-1.7912950073	-1.4368621519	0.0
0.0038095133	-0.0063130314	3.0727691568
-0.8897832221	0.001946639	3.0842207051
-1.784203952	-0.0048212816	3.0731830515
0.0092245385	-0.7166133805	3.0778629773
-0.8922022752	-0.7177811025	3.0870692184
-1.7927854421	-0.7152927807	3.0774765189
0.0032065829	-1.4280339696	3.0733756847
-0.8906567053	-1.4365081405	3.0854557735
-1.7849936793	-1.4268857502	3.0736676747
0.0060543994	0.0030445507	6.1580733092
-0.8910899412	0.0144450373	6.1837500644
-1.7879781483	0.0040879114	6.1588747599
0.0226765852	-0.7185293515	6.1729167311
-0.8907446739	-0.7172922064	6.1949184298
-1.8044998262	-0.717326156	6.1721221799
0.0047024909	-1.4398538244	6.1593557503
-0.892044094	-1.449337028	6.1841571768
-1.7887381913	-1.4384944857	6.1600792586

SCALARS	theta	float 1
LOOKUP_TABLE	default
298.0100884231
298.0623836149
298.0131955636
298.0332807431
298.080363688
298.0333480952
298.0142361322
298.0575337696
298.0141923705
304.750322694
304.794132119
304.7499218744
304.7704397072
304.8152464902
304.770521711
304.7493395718
304.7946372901
304.7493316838
313.5818456083
313.6285064885
313.5817643465
313.6023542533
313.6490691289
313.6022583902
313.582161325
313.6285452466
313.5821406333

SCALARS	sig_11	float	1
LOOKUP_TABLE	default
14.9647729654
26.6533715932
15.9782906214
23.7594668145
34.0676799845
23.2802939291
15.3871498601
25.25884479
15.4627529003
-6.377726175
-1.3682373659
-6.4495040274
-2.3237607467
2.841818943
-2.295642788
-6.6637285211
-1.5155995889
-6.6783434547
-21.4588825607
-20.8826720178
-21.4379842074
-21.1041734267
-20.494231706
-21.1109742427
-21.407018288
-20.8651831102
-21.3996014399

SCALARS	sig_22	float	1
LOOKUP_TABLE	default
9.099954613
19.9825605768
9.9010223618
18.627566132
27.5059693657
18.6251816292
11.0073767027
18.2336319269
11.0649262268
-5.5877269057
-2.1431253226
-5.6461891761
-1.3721121739
2.2750585279
-1.3695651104
-5.7575071388
-2.0439197698
-5.7594161023
-15.7817424036
-15.3330294115
-15.7674025414
-15.4868640629
-15.0268704255
-15.4807003245
-15.718407166
-15.3720895425
-15.719725205

SCALARS	sig_33	float	1
LOOKUP_TABLE	default
25.1520932173
53.7823291779
25.6747842926
46.1694456452
73.8620864777
45.9910419453
25.9510359032
52.972542296
25.9535238311
-8.2870344054
6.4690001214
-8.3451769161
2.4017710125
17.368325543
2.4044696118
-8.3826629674
6.5211576743
-8.3963409408
-60.475805932
-57.6410174845
-60.5040598538
-59.3972781625
-56.3917849432
-59.3792741458
-60.4861409715
-57.621688785
-60.4634742536

SCALARS vonMises	float	1
LOOKUP_TABLE	default
70.6992785387
53.1238137074
70.1774093827
57.7203947109
38.8328503698
57.9841646201
70.0549725361
54.3681658114
70.1250707497
52.3336899675
48.0173327067
52.2463355084
49.9437594519
46.9487336413
49.9833966888
52.221921366
48.1598449399
52.2311169645
59.4242132587
58.8539032662
59.52997198
59.2710708575
58.6489953957
59.2319894649
59.6021501797
58.7800396949
59.5932681102
