# vtk DataFile Version 2.0
Results
ASCII
DATASET UNSTRUCTURED_GRID
POINTS         27           float
0.0	0.0	0.0	
50.0	0.0	0.0	
100.0	0.0	0.0	
0.0	40.0	0.0	
50.0	40.0	0.0	
100.0	40.0	0.0	
0.0	80.0	0.0	
50.0	80.0	0.0	
100.0	80.0	0.0	
0.0	0.0	70.0	
50.0	0.0	70.0	
100.0	0.0	70.0	
0.0	40.0	70.0	
50.0	40.0	70.0	
100.0	40.0	70.0	
0.0	80.0	70.0	
50.0	80.0	70.0	
100.0	80.0	70.0	
0.0	0.0	140.0	
50.0	0.0	140.0	
100.0	0.0	140.0	
0.0	40.0	140.0	
50.0	40.0	140.0	
100.0	40.0	140.0	
0.0	80.0	140.0	
50.0	80.0	140.0	
100.0	80.0	140.0	

CELLS	8	72
 8	0	1	4	3	9	10	13	12	
 8	1	2	5	4	10	11	14	13	
 8	4	5	8	7	13	14	17	16	
 8	3	4	7	6	12	13	16	15	
 8	9	10	13	12	18	19	22	21	
 8	10	11	14	13	19	20	23	22	
 8	13	14	17	16	22	23	26	25	
 8	12	13	16	15	21	22	25	24	

CELL_TYPES	8
 12
 12
 12
 12
 12
 12
 12
 12

POINT_DATA	27
VECTORS	u 	float 
0.0	0.0	0.0
0.004822938	0.0	0.0
0.0096646856	0.0	0.0
0.0	0.0078583248	0.0
0.0047557361	0.0078065638	0.0
0.009496234	0.0080182482	0.0
0.0	0.0163609643	0.0
0.0046550157	0.0150978479	0.0
0.0091585575	0.0166263886	0.0
0.0183920477	0.0224561621	-0.0174326393
0.0048274412	0.0253907768	-0.0070237632
-0.0087467373	0.022672895	-0.0174561231
0.0185261693	0.0077723482	-0.0113013579
0.0047500875	0.0078422007	-0.0013067208
-0.0090267822	0.0079663615	-0.011350499
0.0182878851	-0.0070643458	-0.0173749583
0.0046699349	-0.0095538343	-0.0069474006
-0.0089145986	-0.0068735959	-0.0174087897
-0.0634705369	-0.0546662589	-0.008738246
0.0048521566	-0.0509613228	0.0241979271
0.0731845803	-0.0544782378	-0.0087807153
-0.0627017501	0.0076937201	0.0178031915
0.0047765494	0.0078100715	0.0505207862
0.0722540564	0.007889274	0.0177744624
-0.0636541747	0.0701250665	-0.0086834299
0.0047015698	0.0665083868	0.0242732324
0.073044641	0.0703146045	-0.0087209246

VECTORS	v 	float 
0.0	0.0	0.0
0.0022356756	0.0	0.0
0.0044707163	0.0	0.0
0.0	0.0018564939	0.0
0.0022353706	0.0018613108	0.0
0.0044715879	0.0018603086	0.0
0.0	0.0037262312	0.0
0.002233566	0.0037114907	0.0
0.0044627067	0.0037322949	0.0
0.0002464429	0.0003415136	-0.0080112459
0.0022366019	0.0003848754	-0.0077756659
0.0042268633	0.0003456202	-0.0080115745
0.0002359285	0.0018585993	-0.0078688122
0.0022350461	0.0018588772	-0.0076410711
0.0042337744	0.0018621194	-0.0078700544
0.0002445516	0.0033725729	-0.008009899
0.0022334767	0.003336091	-0.007775257
0.0042234612	0.0033760478	-0.0080105237
-0.0015386583	-0.0013168302	-0.0152831066
0.0022369157	-0.0012660793	-0.0145943192
0.0060126929	-0.0013134813	-0.0152842704
-0.001542878	0.00185674	-0.0147305441
0.0022356394	0.0018593378	-0.0140452422
0.0060142117	0.0018602786	-0.01473097
-0.0015418868	0.0050318936	-0.0152823549
0.0022343155	0.0049831366	-0.0145933027
0.0060102196	0.0050352578	-0.01528338

VECTORS	a 	float 
0.0	0.0	0.0
0.3450769545	0.0	0.0
0.6900620728	0.0	0.0
0.0	0.2764007659	0.0
0.3448779521	0.2762330028	0.0
0.689831392	0.2764169514	0.0
0.0	0.5527181742	0.0
0.3451338992	0.5525245941	0.0
0.6901913792	0.5527474544	0.0
0.00209542	0.0023628773	-1.1867249577
0.3449595104	0.0023265836	-1.186621688
0.6878520333	0.0023353088	-1.1867370886
0.0019763417	0.276319699	-1.1866047352
0.3450203625	0.2763473193	-1.1865169803
0.6880361432	0.2762946664	-1.1866048053
0.0021063309	0.5503007178	-1.1867357703
0.3449714807	0.5503490173	-1.1866595931
0.6878588012	0.5502796627	-1.1867464659
-0.0040861808	-0.0034592838	-2.3717795928
0.344997709	-0.0034159105	-2.3707318702
0.6940755089	-0.0034752656	-2.3718117419
-0.0043522151	0.2763639846	-2.3706797765
0.3449848914	0.2763410815	-2.3695818087
0.6943307626	0.2763435081	-2.3706584143
-0.0040592328	0.556185607	-2.3718142262
0.3450155008	0.5561006478	-2.3707397852
0.694087868	0.5561595441	-2.3718445333

SCALARS	theta	float 1
LOOKUP_TABLE	default
302.425620595
302.1991621442
302.4140697835
302.3383261086
302.1486537913
302.3340900787
302.3948720879
302.2329014517
302.3992115051
296.1775118457
295.8464890799
296.1796698339
295.9229285931
295.5871414777
295.9236749165
296.1848104489
295.8415346107
296.1840139641
314.7715508874
314.2401488052
314.7712949241
314.3250899723
313.7932583857
314.3245714281
314.7690390601
314.2414551343
314.7694289147

SCALARS	sig_11	float	1
LOOKUP_TABLE	default
-56.2196637888
-41.882666528
-55.6987506227
-47.7171131546
-34.7622248307
-47.5543232381
-55.5907999792
-43.6529354868
-55.9886700594
35.6052624754
55.0039312642
35.565707189
53.0610424768
72.4537290077
53.0457129364
35.3307856781
54.8706432823
35.3471131449
-89.4050858006
-62.2090490902
-89.4063997075
-63.1187289647
-35.856911753
-63.105676131
-89.3336388454
-62.1909021885
-89.3498425621

SCALARS	sig_22	float	1
LOOKUP_TABLE	default
-48.6614692335
-35.8017652282
-47.8112198508
-39.424392695
-28.7124608752
-38.9036086217
-46.7011423158
-37.7168991576
-46.5946965285
27.4838729591
41.5521680934
27.4668290002
45.4844803402
59.6149192381
45.4962297562
27.3118136538
41.6492590942
27.3491281324
-72.8839841382
-52.7077475212
-72.8964246687
-45.3270611935
-25.1112488459
-45.3214079599
-72.8103929299
-52.7466199409
-72.839375272

SCALARS	sig_33	float	1
LOOKUP_TABLE	default
-87.6229562177
-61.4221869665
-87.1713580904
-71.9285030125
-47.3158514696
-71.7773198426
-86.548921842
-62.592622951
-86.7461333768
46.323236834
84.5379715045
46.2607272578
79.4747143431
117.6016617389
79.4380206156
46.2386176193
84.5934697612
46.2151116818
-198.3987708294
-145.31777089
-198.4270659275
-147.4114068351
-94.1729710527
-147.3756899401
-198.358735559
-145.3195067307
-198.3676380978

SCALARS vonMises	float	1
LOOKUP_TABLE	default
80.4968240947
67.3345675885
80.8461718963
59.9255550343
37.3368793672
60.0154044161
81.428830408
66.5842643752
81.3118287135
133.170020638
108.1691985297
133.3621297748
104.534912153
70.2111616541
104.5718541749
133.5538351672
107.6555719603
133.4826650984
134.3786366315
114.5411665422
134.4204666932
121.3433137723
101.918002733
121.3421656658
134.5212041615
114.4654094753
134.4847972363
