# vtk DataFile Version 2.0
Results
ASCII
DATASET UNSTRUCTURED_GRID
POINTS         27           float
0.0	0.0	0.0	
50.0	0.0	0.0	
100.0	0.0	0.0	
0.0	40.0	0.0	
50.0	40.0	0.0	
100.0	40.0	0.0	
0.0	80.0	0.0	
50.0	80.0	0.0	
100.0	80.0	0.0	
0.0	0.0	70.0	
50.0	0.0	70.0	
100.0	0.0	70.0	
0.0	40.0	70.0	
50.0	40.0	70.0	
100.0	40.0	70.0	
0.0	80.0	70.0	
50.0	80.0	70.0	
100.0	80.0	70.0	
0.0	0.0	140.0	
50.0	0.0	140.0	
100.0	0.0	140.0	
0.0	40.0	140.0	
50.0	40.0	140.0	
100.0	40.0	140.0	
0.0	80.0	140.0	
50.0	80.0	140.0	
100.0	80.0	140.0	

CELLS	8	72
 8	0	1	4	3	9	10	13	12	
 8	1	2	5	4	10	11	14	13	
 8	4	5	8	7	13	14	17	16	
 8	3	4	7	6	12	13	16	15	
 8	9	10	13	12	18	19	22	21	
 8	10	11	14	13	19	20	23	22	
 8	13	14	17	16	22	23	26	25	
 8	12	13	16	15	21	22	25	24	

CELL_TYPES	8
 12
 12
 12
 12
 12
 12
 12
 12

POINT_DATA	27
VECTORS	u 	float 
0.0	0.0	0.0
-0.006786592	0.0	0.0
-0.0131983388	0.0	0.0
0.0	-0.0074459159	0.0
-0.0067934531	-0.0074728389	0.0
-0.013855621	-0.0073166352	0.0
0.0	-0.014131273	0.0
-0.0069129778	-0.0155837704	0.0
-0.0137093924	-0.0139917712	0.0
-0.0299129144	-0.0266141044	-0.0007762969
-0.0067490082	-0.0255534635	0.0135466402
0.0163254643	-0.0264284848	-0.0007682199
-0.0298767069	-0.0074980346	0.0092982508
-0.0068295745	-0.0074569972	0.0237068162
0.0162836668	-0.007342438	0.0092833585
-0.0299724844	0.0114409239	-0.000721807
-0.0068793932	0.0108103336	0.0135880158
0.0161825846	0.0115975826	-0.0007382531
-0.0736130922	-0.0626509746	0.0611420872
-0.0067586934	-0.0628521804	0.0770722629
0.0601379384	-0.0625048323	0.0611222371
-0.0738105149	-0.0075663343	0.0716263812
-0.0068106354	-0.0074634847	0.0878217322
0.0601584194	-0.0074054143	0.0716248855
-0.0737715234	0.0476016787	0.0611640537
-0.0068786021	0.0478456123	0.0771345145
0.0600279296	0.0477587679	0.0611548819

VECTORS	v 	float 
0.0	0.0	0.0
7.93501e-05	0.0	0.0
0.0001615084	0.0	0.0
0.0	5.63541e-05	0.0
8.60632e-05	6.245e-05	0.0
0.0001696681	5.60495e-05	0.0
0.0	0.0001155178	0.0
7.75756e-05	0.0001229116	0.0
0.000157227	0.0001151982	0.0
6.13248e-05	3.17999e-05	8.57221e-05
8.34419e-05	3.83638e-05	6.48272e-05
0.0001046649	3.29344e-05	8.60835e-05
6.83211e-05	5.93453e-05	6.93031e-05
8.13534e-05	5.84516e-05	4.69779e-05
9.53266e-05	6.03771e-05	6.91083e-05
6.08842e-05	8.60669e-05	8.62135e-05
8.2832e-05	7.92499e-05	6.61087e-05
0.0001041728	8.69112e-05	8.64934e-05
0.0002014099	0.0001683924	5.29291e-05
8.22855e-05	0.0001772676	1.66034e-05
-3.65651e-05	0.0001692747	5.3823e-05
0.0002173423	5.76987e-05	2.33679e-05
8.26029e-05	5.86473e-05	-1.62627e-05
-5.25187e-05	5.87335e-05	2.26355e-05
0.0002001639	-5.28997e-05	5.42053e-05
8.14098e-05	-6.01501e-05	1.69425e-05
-3.72496e-05	-5.16621e-05	5.4986e-05

VECTORS	a 	float 
0.0	0.0	0.0
-0.8941600413	0.0	0.0
-1.7854697403	0.0	0.0
0.0	-0.720983212	0.0
-0.8861935695	-0.7125750363	0.0
-1.7747957252	-0.7208250762	0.0
0.0	-1.4374737044	0.0
-0.8962467145	-1.4285290063	0.0
-1.7908534633	-1.4371586901	0.0
0.0045550752	-0.0067670447	3.0718815628
-0.8892150293	0.0020991512	3.0844003948
-1.7838816793	-0.0051652179	3.0723187202
0.010395982	-0.7167226456	3.077550099
-0.8917865702	-0.7179470314	3.0877299394
-1.7930569425	-0.7153052899	3.0771422056
0.0039113428	-1.427883385	3.072529187
-0.8901546595	-1.4369140397	3.0857273272
-1.7847329496	-1.4266516216	3.0728361863
0.0062999388	0.0030798707	6.1581064304
-0.8905975404	0.0150547471	6.1852841348
-1.7872145848	0.0042091093	6.1589574141
0.0239532291	-0.7187632779	6.1737729677
-0.8902410246	-0.7174424941	6.1970984269
-1.8047988755	-0.7174616589	6.1729289594
0.0048359198	-1.4403360669	6.1594772403
-0.8916316714	-1.4502738638	6.1857255204
-1.7880396408	-1.4388661084	6.1602456503

SCALARS	theta	float 1
LOOKUP_TABLE	default
298.2416373561
298.2937062111
298.244754772
298.2651669742
298.3120894686
298.2651788865
298.2456867494
298.2889025747
298.2456276221
304.8483034937
304.8872174159
304.847924308
304.8660486057
304.9059487998
304.8661483188
304.8473149185
304.8876755353
304.847307851
313.1762398014
313.2127754076
313.1761547872
313.1915622503
313.2281509978
313.1914671525
313.176537126
313.212815028
313.1765262669

SCALARS	sig_11	float	1
LOOKUP_TABLE	default
15.1120974003
26.3231318869
16.087919995
23.5589872287
33.4428098783
23.0959867922
15.5181716285
24.9850173278
15.5931046051
-6.735665402
-1.9687723617
-6.8050488631
-2.8999191957
2.0175051114
-2.8728036249
-7.0104080429
-2.1101364732
-7.0246139229
-19.9320819714
-19.4482588345
-19.9118280063
-19.6992666639
-19.1833038855
-19.7058738249
-19.8822925588
-19.4315757513
-19.8750994799

SCALARS	sig_22	float	1
LOOKUP_TABLE	default
9.3472186789
19.7845902616
10.1160292082
18.4965544792
27.0087984318
18.4924890736
11.1801398064
18.1051883908
11.2349096629
-5.8516631874
-2.5789346551
-5.908285926
-1.8686626571
1.5991069901
-1.8663692156
-6.0146551663
-2.4833140796
-6.0167058794
-14.5967430763
-14.2193623651
-14.5827642417
-14.4396601953
-14.0517447579
-14.433683088
-14.5358321796
-14.2569313
-14.5369962186

SCALARS	sig_33	float	1
LOOKUP_TABLE	default
25.1962248748
52.6742317443
25.698069829
45.3952417136
71.9750791712
45.2230720982
25.9633642639
51.8976775093
25.9667224246
-8.8615923326
5.0944501289
-8.9178337727
1.194530784
15.3540754904
1.1971463183
-8.9534755326
5.1448610357
-8.9665744712
-56.4795128823
-54.1675348122
-56.5065857302
-55.8732591396
-53.397457781
-55.8559450109
-56.4896506695
-54.1490155483
-56.4677159927

SCALARS vonMises	float	1
LOOKUP_TABLE	default
69.3550897771
52.0965639695
68.8512782499
56.4937456479
37.7485963277
56.7486535908
68.7302957189
53.291127821
68.7968991647
50.1406744656
45.9288250519
50.0528192651
47.8177673062
44.8504329942
47.8581464262
50.028369532
46.0779835989
50.0372572188
56.0185697342
55.6320021277
56.1204754041
55.9808259734
55.5401710682
55.9429345499
56.1896961485
55.5612744065
56.1813200242
