# vtk DataFile Version 2.0
Results
ASCII
DATASET UNSTRUCTURED_GRID
POINTS         27           float
0.0	0.0	0.0	
50.0	0.0	0.0	
100.0	0.0	0.0	
0.0	40.0	0.0	
50.0	40.0	0.0	
100.0	40.0	0.0	
0.0	80.0	0.0	
50.0	80.0	0.0	
100.0	80.0	0.0	
0.0	0.0	70.0	
50.0	0.0	70.0	
100.0	0.0	70.0	
0.0	40.0	70.0	
50.0	40.0	70.0	
100.0	40.0	70.0	
0.0	80.0	70.0	
50.0	80.0	70.0	
100.0	80.0	70.0	
0.0	0.0	140.0	
50.0	0.0	140.0	
100.0	0.0	140.0	
0.0	40.0	140.0	
50.0	40.0	140.0	
100.0	40.0	140.0	
0.0	80.0	140.0	
50.0	80.0	140.0	
100.0	80.0	140.0	

CELLS	8	72
 8	0	1	4	3	9	10	13	12	
 8	1	2	5	4	10	11	14	13	
 8	4	5	8	7	13	14	17	16	
 8	3	4	7	6	12	13	16	15	
 8	9	10	13	12	18	19	22	21	
 8	10	11	14	13	19	20	23	22	
 8	13	14	17	16	22	23	26	25	
 8	12	13	16	15	21	22	25	24	

CELL_TYPES	8
 12
 12
 12
 12
 12
 12
 12
 12

POINT_DATA	27
VECTORS	u 	float 
0.0	0.0	0.0
-0.007605237	0.0	0.0
-0.0148266274	0.0	0.0
0.0	-0.0081133398	0.0
-0.0076125531	-0.0081409861	0.0
-0.0155002164	-0.0079803866	0.0
0.0	-0.0154451784	0.0
-0.007735287	-0.0169374811	0.0
-0.0153517264	-0.0153012948	0.0
-0.0304375571	-0.0270224385	-0.0018757917
-0.0075666867	-0.025929398	0.0128525797
0.0152125192	-0.0268314626	-0.0018676067
-0.030398011	-0.0081670131	0.0084737535
-0.0076494718	-0.0081246631	0.0232887826
0.015166724	-0.0080069197	0.0084583457
-0.0304990826	0.0105064611	-0.001819611
-0.0077008449	0.0098557144	0.0128953571
0.0150656479	0.0106676158	-0.0018365487
-0.0758242585	-0.0645226745	0.0605633878
-0.0075764521	-0.0647243906	0.0771508104
0.060714655	-0.0643721152	0.0605428959
-0.0760193933	-0.0082374477	0.0715179126
-0.0076300344	-0.0081316185	0.0883766414
0.0607277624	-0.0080717137	0.0715162605
-0.0759874283	0.0481334596	0.0605863003
-0.007700015	0.0483793392	0.0772150601
0.060601278	0.0482952343	0.0605767603

VECTORS	v 	float 
0.0	0.0	0.0
7.04163e-05	0.0	0.0
0.0001365291	0.0	0.0
0.0	6.56487e-05	0.0
6.31906e-05	5.81472e-05	0.0
0.0001299062	6.49752e-05	0.0
0.0	0.0001240896	0.0
7.27784e-05	0.0001219856	0.0
0.000143514	0.0001230455	0.0
3.49185e-05	4.20316e-05	0.0001158403
6.57e-05	2.95383e-05	6.08568e-05
9.77215e-05	3.97173e-05	0.0001154763
2.85991e-05	6.20464e-05	8.11214e-05
6.83813e-05	6.29272e-05	2.76816e-05
0.0001069715	6.00476e-05	8.16027e-05
3.57592e-05	8.38937e-05	0.0001150446
6.71647e-05	9.45697e-05	5.92685e-05
9.91604e-05	8.21205e-05	0.0001148571
0.0001999971	0.0001724666	5.59328e-05
6.6911e-05	0.0001631904	-3.17049e-05
-6.6659e-05	0.0001706567	5.52851e-05
0.0001835382	6.4302e-05	-2.8955e-06
6.68793e-05	6.26297e-05	-8.82686e-05
-4.92364e-05	6.22528e-05	-2.0814e-06
0.0002022611	-4.44237e-05	5.44463e-05
6.85405e-05	-3.72756e-05	-3.2439e-05
-6.53057e-05	-4.66503e-05	5.38304e-05

VECTORS	a 	float 
0.0	0.0	0.0
0.8943570412	0.0	0.0
1.7860209893	0.0	0.0
0.0	0.7207637542	0.0
0.8866971821	0.7126537512	0.0
1.7756706575	0.7206134178	0.0
0.0	1.4372547923	0.0
0.8963527107	1.4285178129	0.0
1.7911568982	1.4369551139	0.0
-0.0040418262	0.0064557191	-3.0724920694
0.8896056958	-0.0019934911	-3.084277071
1.7841026337	0.0049295519	-3.0729132608
-0.0095900392	0.7166476964	-3.0777656987
0.8920723708	0.717833114	-3.0872760662
1.792869714	0.7152968427	-3.0773725009
-0.0034261343	1.4279864434	-3.0731114374
0.890499863	1.4366344941	-3.085540839
1.7849116096	1.4268121024	-3.0734081459
-0.0061323004	-0.0030565498	-6.1580842376
0.8909360687	-0.0146365008	-6.1842292603
1.7877407159	-0.0041267616	-6.1589011956
-0.0230766755	0.7186026196	-6.1731845546
0.8905873079	0.7173393321	-6.1955990979
1.8045944624	0.7173686465	-6.1723745062
-0.0047453467	1.4400058184	-6.1593942888
0.8919152324	1.4496310355	-6.1846470844
1.7885210931	1.4386118959	-6.1601318693

SCALARS	theta	float 1
LOOKUP_TABLE	default
298.081760396
298.1340283019
298.0848741138
298.1050888969
298.1521622403
298.1051369943
298.0858787262
298.1291904529
298.0858304436
304.7831230918
304.8253135842
304.7827289842
304.8024496288
304.8456350655
304.8025379524
304.7821374872
304.82580363
304.7821297007
313.4517676733
313.4950333128
313.4516849804
313.4705259626
313.5138452182
313.4704300253
313.4520776618
313.4950725265
313.4520601571

SCALARS	sig_11	float	1
LOOKUP_TABLE	default
15.0296642028
26.5671199083
16.03136254
23.7146068491
33.8884022557
23.2404494737
15.4469069649
25.1904185493
15.5223689165
-6.5059230493
-1.57423513
-6.5769575479
-2.5223107011
2.5637327706
-2.4945033347
-6.7883730346
-1.7197022793
-6.8028666358
-20.9597678072
-20.4145840788
-20.9390666958
-20.6462171884
-20.0678082134
-20.6529580231
-20.9085596129
-20.3973523372
-20.9012104075

SCALARS	sig_22	float	1
LOOKUP_TABLE	default
9.1931235367
19.934789744
9.9839921352
18.6013196012
27.3637275435
18.5983440114
11.0770553329
18.2078045129
11.1337058987
-5.6831397282
-2.2937583555
-5.7410364708
-1.5425990051
2.046992498
-1.5401329499
-5.8507770843
-2.1956794877
-5.8527407557
-15.3935395203
-14.9687603085
-15.3793086099
-15.1452573679
-14.709436244
-15.1391501534
-15.3309694154
-15.0073521258
-15.3322355995

SCALARS	sig_33	float	1
LOOKUP_TABLE	default
25.1919470603
53.4578196379
25.708056798
45.9512056286
73.2919753278
45.7747460405
25.9808488213
52.6585403986
25.9836285406
-8.4908855486
6.0070328192
-8.5484417281
1.9928769871
16.699139632
1.9955566964
-8.5853336078
6.0586437718
-8.5988346748
-59.1737412396
-56.5143960162
-59.2016204154
-58.255028454
-55.4271475103
-58.2372393891
-59.184019935
-56.4953244063
-59.161580283

SCALARS vonMises	float	1
LOOKUP_TABLE	default
70.3109835506
52.8259941915
69.794624562
57.3591914736
38.5013197102
57.6199358652
69.6724556315
54.0542531517
69.741313836
51.6367616322
47.3507178117
51.5490774317
49.26672285
46.2789627983
49.3066640564
51.524547794
47.4956368827
51.5336610259
58.3223415582
57.8140480822
58.4268665653
58.2081101262
57.6472940832
58.1695270525
58.4980330091
57.7412576768
58.4893755177
