# vtk DataFile Version 2.0
Results
ASCII
DATASET UNSTRUCTURED_GRID
POINTS         27           float
0.0	0.0	0.0	
50.0	0.0	0.0	
100.0	0.0	0.0	
0.0	40.0	0.0	
50.0	40.0	0.0	
100.0	40.0	0.0	
0.0	80.0	0.0	
50.0	80.0	0.0	
100.0	80.0	0.0	
0.0	0.0	70.0	
50.0	0.0	70.0	
100.0	0.0	70.0	
0.0	40.0	70.0	
50.0	40.0	70.0	
100.0	40.0	70.0	
0.0	80.0	70.0	
50.0	80.0	70.0	
100.0	80.0	70.0	
0.0	0.0	140.0	
50.0	0.0	140.0	
100.0	0.0	140.0	
0.0	40.0	140.0	
50.0	40.0	140.0	
100.0	40.0	140.0	
0.0	80.0	140.0	
50.0	80.0	140.0	
100.0	80.0	140.0	

CELLS	8	72
 8	0	1	4	3	9	10	13	12	
 8	1	2	5	4	10	11	14	13	
 8	4	5	8	7	13	14	17	16	
 8	3	4	7	6	12	13	16	15	
 8	9	10	13	12	18	19	22	21	
 8	10	11	14	13	19	20	23	22	
 8	13	14	17	16	22	23	26	25	
 8	12	13	16	15	21	22	25	24	

CELL_TYPES	8
 12
 12
 12
 12
 12
 12
 12
 12

POINT_DATA	27
VECTORS	u 	float 
0.0	0.0	0.0
-0.0122568092	0.0	0.0
-0.0240810188	0.0	0.0
0.0	-0.0117051408	0.0
-0.0122681142	-0.0117364213	0.0
-0.0248453133	-0.0115480351	0.0
0.0	-0.0224973845	0.0
-0.0124110342	-0.0242372807	0.0
-0.0246949848	-0.0223226332	0.0
-0.0322858819	-0.0280197843	-0.0090339698
-0.0122129573	-0.0267034247	0.0082991028
0.0077558049	-0.0277943675	-0.0090257215
-0.0322200337	-0.0117687181	0.0030325638
-0.0123099127	-0.0117181057	0.0204518513
0.0076759117	-0.0115796961	0.0030133434
-0.0323606176	0.0042701334	-0.0089666234
-0.012371344	0.0034730192	0.0083513477
0.0075836138	0.0044600641	-0.0089869906
-0.0906438079	-0.0770275013	0.0559429843
-0.012223299	-0.0772010322	0.0777175916
0.0662466498	-0.0768497496	0.0559179703
-0.0907940906	-0.0118529125	0.0707352574
-0.012286938	-0.0117281371	0.0928133839
0.0661848014	-0.011657475	0.0707321012
-0.090835902	0.0534218088	0.0559727852
-0.0123690497	0.0536489202	0.0777950078
0.0661128031	0.0536124582	0.0559603339

VECTORS	v 	float 
0.0	0.0	0.0
5.74975e-05	0.0	0.0
0.0001112318	0.0	0.0
0.0	5.09588e-05	0.0
4.91713e-05	4.20012e-05	0.0
0.0001014255	5.04408e-05	0.0
0.0	9.55913e-05	0.0
5.97463e-05	8.89688e-05	0.0
0.0001175932	9.4784e-05	0.0
-1.52209e-05	-8.1295e-06	0.0001198038
5.22097e-05	-1.6443e-05	7.30352e-05
0.00012078	-1.01073e-05	0.0001193916
-1.87456e-05	4.64212e-05	9.174e-05
5.50538e-05	4.77565e-05	4.69899e-05
0.0001277806	4.47153e-05	9.21676e-05
-1.45052e-05	0.0001026183	0.0001188791
5.34286e-05	0.0001104007	7.17488e-05
0.0001219359	0.0001011095	0.0001186691
0.0002411731	0.0002043162	6.91357e-05
5.37471e-05	0.0001988046	-3.08791e-05
-0.0001340974	0.0002030786	6.83913e-05
0.0002282279	4.87022e-05	-2.8126e-06
5.33613e-05	4.71045e-05	-9.98666e-05
-0.0001210422	4.7244e-05	-1.9997e-06
0.0002428053	-0.0001074036	6.75585e-05
5.48292e-05	-0.0001040273	-3.13671e-05
-0.000133251	-0.0001090291	6.69018e-05

VECTORS	a 	float 
0.0	0.0	0.0
0.8956385954	0.0	0.0
1.7895272666	0.0	0.0
0.0	0.7194467557	0.0
0.8897979161	0.7131154965	0.0
1.781076466	0.719337701	0.0
0.0	1.4359193568	0.0
0.8970909866	1.4284460982	0.0
1.7931917828	1.4357019016	0.0
-0.000778964	0.00459738	-3.076003764
0.8920296204	-0.0014287815	-3.0835949884
1.785404426	0.0035116769	-3.0763268564
-0.0045769693	0.7161919042	-3.0790001591
0.8938723013	0.7171342447	-3.0847012398
1.7917396651	0.7152275796	-3.0786937567
-0.0003234834	1.4285873713	-3.0764511726
0.8926617992	1.4349908513	-3.0844867441
1.7859714482	1.4277451345	-3.0766846998
-0.0051269423	-0.0028414951	-6.1575132336
0.8930390711	-0.0121535177	-6.1779969669
1.7910407005	-0.0035907092	-6.158122463
-0.0178763748	0.7176395399	-6.1695789686
0.8927510734	0.7167123532	-6.1870630407
1.8035997783	0.7167784529	-6.1689723024
-0.0041689429	1.4379490856	-6.1584574323
0.8937196182	1.4457870947	-6.1782784966
1.7915832545	1.4369782198	-6.1590071233

SCALARS	theta	float 1
LOOKUP_TABLE	default
297.2477684308
297.2956979205
297.2504635101
297.2661015314
297.3088218064
297.266578053
297.2521999691
297.2908724526
297.2521632573
304.1220648589
304.1939819143
304.1215682961
304.1570268922
304.2299056637
304.1569698331
304.121169862
304.1947221936
304.1211613349
315.4788782491
315.5898519323
315.4788502767
315.5347110781
315.6457658569
315.5346492633
315.4792628248
315.5898567188
315.479199304

SCALARS	sig_11	float	1
LOOKUP_TABLE	default
12.0709875487
25.7560268642
13.2278951867
22.2772629722
34.373446555
21.7437033468
12.5581608036
24.1296491312
12.6277266743
-3.0509303799
3.1168230153
-3.1310940019
2.07841076
8.4229698897
2.1100568627
-3.3826722357
2.9449471741
-3.3981614492
-29.802159613
-28.586689291
-29.7794590892
-28.6111277017
-27.3548775434
-28.6185588954
-29.7416094481
-28.5656160094
-29.733814777

SCALARS	sig_22	float	1
LOOKUP_TABLE	default
6.2139547864
18.9600865163
7.1484936223
17.2778285788
27.7003199049
17.2903441497
8.4214951408
16.9285846403
8.4932633771
-3.025656695
1.2485593712
-3.0900918002
2.342228308
6.8482061363
2.3463584709
-3.2231530536
1.3618977493
-3.2235012836
-22.3516561613
-21.4198390669
-22.3367244395
-21.1059467221
-20.159186818
-21.0992957475
-22.2784189263
-21.4647006671
-22.2809768038

SCALARS	sig_33	float	1
LOOKUP_TABLE	default
21.7467935149
55.1433565278
22.353708722
46.0517347284
78.3455905077
45.8517647948
22.6753060673
54.196361993
22.6716594202
-3.1866150096
15.53114364
-3.2515757273
10.7328836151
29.6859665971
10.7357205277
-3.2974508428
15.5900434006
-3.3134345198
-81.7252571258
-75.4441490706
-81.7588907779
-77.3890787057
-70.9092419088
-77.3683725475
-81.735609479
-75.4213269443
-81.710795984

SCALARS vonMises	float	1
LOOKUP_TABLE	default
71.7333143636
54.0764950943
71.1487540937
59.5201617306
41.9378580259
59.8137479761
71.0364967298
55.5279369875
71.123900491
61.9604604702
57.638003733
61.8946875163
59.4639085451
56.4695490998
59.4920618553
61.8765347103
57.70686673
61.8868782467
76.5433992738
74.7508845658
76.6635146877
75.6024417799
73.8009223668
75.5600405808
76.747919514
74.6641494719
76.7363893358
