# vtk DataFile Version 2.0
Results
ASCII
DATASET UNSTRUCTURED_GRID
POINTS         27           float
0.0	0.0	0.0	
50.0	0.0	0.0	
100.0	0.0	0.0	
0.0	40.0	0.0	
50.0	40.0	0.0	
100.0	40.0	0.0	
0.0	80.0	0.0	
50.0	80.0	0.0	
100.0	80.0	0.0	
0.0	0.0	70.0	
50.0	0.0	70.0	
100.0	0.0	70.0	
0.0	40.0	70.0	
50.0	40.0	70.0	
100.0	40.0	70.0	
0.0	80.0	70.0	
50.0	80.0	70.0	
100.0	80.0	70.0	
0.0	0.0	140.0	
50.0	0.0	140.0	
100.0	0.0	140.0	
0.0	40.0	140.0	
50.0	40.0	140.0	
100.0	40.0	140.0	
0.0	80.0	140.0	
50.0	80.0	140.0	
100.0	80.0	140.0	

CELLS	8	72
 8	0	1	4	3	9	10	13	12	
 8	1	2	5	4	10	11	14	13	
 8	4	5	8	7	13	14	17	16	
 8	3	4	7	6	12	13	16	15	
 8	9	10	13	12	18	19	22	21	
 8	10	11	14	13	19	20	23	22	
 8	13	14	17	16	22	23	26	25	
 8	12	13	16	15	21	22	25	24	

CELL_TYPES	8
 12
 12
 12
 12
 12
 12
 12
 12

POINT_DATA	27
VECTORS	u 	float 
0.0	0.0	0.0
-0.0151339776	0.0	0.0
-0.0298216837	0.0	0.0
0.0	-0.0128298305	0.0
-0.0151592576	-0.0128630396	0.0
-0.030632691	-0.0126362013	0.0
0.0	-0.0245852134	0.0
-0.0153245246	-0.0266230829	0.0
-0.0305499497	-0.0243533957	0.0
-0.0272924818	-0.0215062622	-0.0184329928
-0.0150874204	-0.0197333571	0.0022045843
-0.0029924745	-0.0212309716	-0.0184283175
-0.0271986981	-0.0129072297	-0.0044396203
-0.01520249	-0.0128424572	0.0162398842
-0.0031303582	-0.0126755149	-0.0044673379
-0.0273908922	-0.0045570219	-0.0183499481
-0.0152813179	-0.0057082564	0.0022717408
-0.0032005537	-0.0043253215	-0.0183768403
-0.1119918786	-0.0949711266	0.0458477749
-0.0150946867	-0.0948037477	0.0787130384
0.0818559653	-0.0947527176	0.045814353
-0.1119894714	-0.0130105347	0.0693885309
-0.0151746993	-0.0128590083	0.1025576437
0.0816044533	-0.012771282	0.0693801616
-0.1122249503	0.0690675072	0.0458895097
-0.0152736287	0.0689722719	0.0788094996
0.0816905634	0.069300915	0.0458702066

VECTORS	v 	float 
0.0	0.0	0.0
-2.9996e-06	0.0	0.0
-5.1958e-06	0.0	0.0
0.0	-3.38953e-05	0.0
1.136e-06	-2.62667e-05	0.0
1.4753e-06	-3.3929e-05	0.0
0.0	-6.79034e-05	0.0
-2.9741e-06	-5.24451e-05	0.0
-5.4451e-06	-6.78609e-05	0.0
-0.0001591861	-0.0001866923	0.0001252122
-4.968e-07	-0.0001923487	8.38216e-05
0.0001580046	-0.0001865837	0.0001255746
-0.0001572965	-2.94556e-05	0.0001047531
-1.4367e-06	-3.08372e-05	6.1188e-05
0.0001547713	-2.94088e-05	0.00010436
-0.0001591039	0.0001277113	0.0001253759
-5.352e-07	0.0001307322	8.39301e-05
0.0001579278	0.0001276318	0.0001256635
0.0003147952	0.0002635419	0.0001918335
-1.135e-06	0.0002631809	5.6228e-06
-0.0003169622	0.0002635777	0.0001921717
0.0003231162	-3.05342e-05	3.79373e-05
-7.245e-07	-3.00208e-05	-0.0001514906
-0.0003247921	-3.0455e-05	3.76052e-05
0.0003146037	-0.0003247096	0.0001923566
-1.1875e-06	-0.0003231739	5.3356e-06
-0.0003169219	-0.0003245461	0.0001926295

VECTORS	a 	float 
0.0	0.0	0.0
-0.8972443066	0.0	0.0
-1.7938313723	0.0	0.0
0.0	-0.7178748332	0.0
-0.8935911484	-0.7136501733	0.0
-1.7877405816	-0.7177950108	0.0
0.0	-1.4342254441	0.0
-0.8980719671	-1.4284072347	0.0
-1.795824592	-1.4340698686	0.0
-0.0034096708	-0.0025066248	3.0795270381
-0.8949933447	0.0009765189	3.0829170314
-1.7868146728	-0.0019017513	3.0797363363
-0.0014989207	-0.7156465065	3.0803216504
-0.8961020589	-0.716280286	3.0822535243
-1.7904506531	-0.7151040415	3.0801032355
-0.0036946237	-1.4291980011	3.0797695241
-0.8953450883	-1.4331871585	3.0833932733
-1.7871271609	-1.4287165937	3.0799316465
0.0038906251	0.0024029878	6.1555556617
-0.8956019787	0.0093737352	6.1709326314
-1.795042967	0.0028351422	6.1559193025
0.0120209228	-0.7165111734	6.1651970237
-0.8954158092	-0.7159601115	6.1784176003
-1.802935233	-0.7160261774	6.1648189592
0.0033728452	-1.4353468362	6.1560729498
-0.8959879383	-1.4413852093	6.1710689032
-1.7953588681	-1.4348099516	6.1564031563

SCALARS	theta	float 1
LOOKUP_TABLE	default
297.1393020423
297.1523931552
297.1392652371
297.1335490063
297.1423436542
297.1356408101
297.1440760179
297.14811676
297.1431616157
302.1486432433
302.2774960309
302.14807849
302.228527479
302.35776963
302.2279341016
302.1480921766
302.2787159222
302.1482119486
319.2536368924
319.5278630702
319.2538545116
319.42823594
319.7028383715
319.4284386365
319.254025884
319.5277001635
319.2538643914

SCALARS	sig_11	float	1
LOOKUP_TABLE	default
-3.2705290674
13.4026911968
-1.9831420028
8.7610760904
23.6296702761
8.2236803805
-2.7240435302
11.4628708202
-2.7104215134
10.5210574754
19.4248514717
10.4371232984
18.0832317173
27.179750691
18.1159621674
10.1289212571
19.2189414838
10.1163766229
-51.8814413301
-47.9390237623
-51.8609681089
-47.7664536399
-43.7726384323
-47.7739645616
-51.8089624801
-47.9115665747
-51.8033954643

SCALARS	sig_22	float	1
LOOKUP_TABLE	default
-7.0334644179
8.4893935269
-5.9088318169
6.0145544449
18.8082219134
6.097395687
-4.4478421995
6.0872999974
-4.3359347025
7.719336869
13.9524601604
7.6558194647
15.6490382076
22.1439465086
15.6584150502
7.485284784
14.0827789783
7.4928362821
-39.9987150583
-37.1078520243
-39.9877909247
-35.5330688557
-32.6215272628
-35.5276230774
-39.9124058915
-37.1588550539
-39.9196813965

SCALARS	sig_33	float	1
LOOKUP_TABLE	default
1.0707036957
41.2506908372
1.7823339126
29.4641087417
68.309630396
29.2601665009
2.1577905939
40.121776702
2.1365810149
17.326171771
45.0878554724
17.2568473011
38.7811628791
66.7876636169
38.7822418575
17.1965065485
45.1541852172
17.1774921925
-135.0817474839
-117.2311024875
-135.1257987482
-119.7828152376
-101.6987127599
-119.7595039367
-135.0899179608
-117.201804555
-135.0657122499

SCALARS vonMises	float	1
LOOKUP_TABLE	default
51.813265489
40.4066804308
51.2375078393
46.737182061
40.4340759599
47.0372629936
51.3138950916
42.2019397806
51.4536185429
83.6935306454
80.4889657407
83.8703676137
80.4662087766
75.4771640897
80.4394192408
83.9648519746
80.2313752759
83.9701040404
116.1306270742
109.8075115224
116.2635786497
112.3285274744
106.2685053742
112.2887755679
116.3674707879
109.7010569938
116.3486514337
