# vtk DataFile Version 2.0
Results
ASCII
DATASET UNSTRUCTURED_GRID
POINTS         27           float
0.0	0.0	0.0	
50.0	0.0	0.0	
100.0	0.0	0.0	
0.0	40.0	0.0	
50.0	40.0	0.0	
100.0	40.0	0.0	
0.0	80.0	0.0	
50.0	80.0	0.0	
100.0	80.0	0.0	
0.0	0.0	70.0	
50.0	0.0	70.0	
100.0	0.0	70.0	
0.0	40.0	70.0	
50.0	40.0	70.0	
100.0	40.0	70.0	
0.0	80.0	70.0	
50.0	80.0	70.0	
100.0	80.0	70.0	
0.0	0.0	140.0	
50.0	0.0	140.0	
100.0	0.0	140.0	
0.0	40.0	140.0	
50.0	40.0	140.0	
100.0	40.0	140.0	
0.0	80.0	140.0	
50.0	80.0	140.0	
100.0	80.0	140.0	

CELLS	8	72
 8	0	1	4	3	9	10	13	12	
 8	1	2	5	4	10	11	14	13	
 8	4	5	8	7	13	14	17	16	
 8	3	4	7	6	12	13	16	15	
 8	9	10	13	12	18	19	22	21	
 8	10	11	14	13	19	20	23	22	
 8	13	14	17	16	22	23	26	25	
 8	12	13	16	15	21	22	25	24	

CELL_TYPES	8
 12
 12
 12
 12
 12
 12
 12
 12

POINT_DATA	27
VECTORS	u 	float 
0.0	0.0	0.0
-0.0100930178	0.0	0.0
-0.0197753154	0.0	0.0
0.0	-0.0100909562	0.0
-0.0101031683	-0.0101220767	0.0
-0.0205003869	-0.0099460643	0.0
0.0	-0.0193336868	0.0
-0.0102350331	-0.0209550568	0.0
-0.0203453313	-0.0191750662	0.0
-0.0317501558	-0.0279330105	-0.0054482895
-0.0100523458	-0.0267309526	0.0105908385
0.0115470433	-0.027724884	-0.0054399444
-0.0316969562	-0.0101504702	0.0057781602
-0.0101420185	-0.0101037965	0.0219058023
0.0114851091	-0.0099759926	0.0057610163
-0.0318180457	0.0074347322	-0.0053866252
-0.0101985563	0.0067142661	0.0106383095
0.0113875012	0.0076102338	-0.0054052359
-0.0831094549	-0.0706787584	0.0584656559
-0.0100623412	-0.0708743466	0.0774202588
0.0630313438	-0.070514613	0.0584429632
-0.0832881449	-0.0102275851	0.0711454361
-0.0101210079	-0.0101123892	0.0903896667
0.063012402	-0.0100469958	0.0711432024
-0.0832871689	0.0503166203	0.0584917684
-0.01019701	0.0505606618	0.0774911088
0.0629077522	0.0504928326	0.0584808818

VECTORS	v 	float 
0.0	0.0	0.0
6.72747e-05	0.0	0.0
0.0001303805	0.0	0.0
0.0	5.96634e-05	0.0
6.14194e-05	5.36888e-05	0.0
0.000126259	5.89779e-05	0.0
0.0	0.0001121655	0.0
6.96341e-05	0.0001130319	0.0
0.0001373005	0.0001110958	0.0
2.03061e-05	2.38752e-05	0.000125953
6.33988e-05	9.7314e-06	6.57989e-05
0.0001076934	2.15681e-05	0.0001256313
1.25015e-05	5.69661e-05	8.80839e-05
6.57806e-05	5.75603e-05	2.93761e-05
0.0001179128	5.49692e-05	8.8535e-05
2.11611e-05	9.18621e-05	0.0001252042
6.48613e-05	0.0001036679	6.41915e-05
0.0001091274	9.00846e-05	0.00012505
0.0002211112	0.000189856	7.63318e-05
6.43978e-05	0.0001792833	-3.33271e-05
-9.27827e-05	0.0001880422	7.57392e-05
0.0002034281	5.90181e-05	-5.783e-07
6.44902e-05	5.74517e-05	-0.0001081761
-7.39296e-05	5.69694e-05	1.911e-07
0.0002233582	-7.23813e-05	7.49284e-05
6.60296e-05	-6.37293e-05	-3.41287e-05
-9.14163e-05	-7.4597e-05	7.4357e-05

VECTORS	a 	float 
0.0	0.0	0.0
0.8949923773	0.0	0.0
1.7877729618	0.0	0.0
0.0	0.7201011948	0.0
0.888228252	0.7128813922	0.0
1.7783270463	0.7199767063	0.0
0.0	1.4366073424	0.0
0.8967087805	1.4284531377	0.0
1.7921475893	1.4363582175	0.0
-0.0024742884	0.0054819989	-3.0744419803
0.8908084989	-0.0016574956	-3.083902926
1.7847961625	0.0041897095	-3.0748131472
-0.0070826558	0.7164137153	-3.0784241865
0.8929620595	0.7174845342	-3.0858092283
1.7922865176	0.7152683071	-3.0780784012
-0.0019453231	1.4283125455	-3.0749747983
0.8915618538	1.4357676084	-3.0849724544
1.7854737997	1.4273153685	-3.0752389314
-0.0056120166	-0.0029823742	-6.1581030581
0.8919857364	-0.013336863	-6.1809807079
1.789371032	-0.0038700341	-6.1588149557
-0.0203581215	0.7181082633	-6.1713565527
0.8916566684	0.7170206645	-6.1908775801
1.8039517803	0.7170835874	-6.1706524223
-0.0044631071	1.4389871909	-6.1592265071
0.8927948757	1.4476378715	-6.181325854
1.7900131239	1.4378282805	-6.1598684982

SCALARS	theta	float 1
LOOKUP_TABLE	default
297.6145201416
297.6659500923
297.6175137964
297.6361893281
297.682351178
297.6364128488
297.6188202646
297.661070743
297.6187893216
304.5122886286
304.5673095591
304.5118479298
304.5380496812
304.5940594331
304.5380795318
304.511333858
304.5679124373
304.5113274465
314.4044950249
314.475783347
314.4044275348
314.4380412015
314.5093894583
314.4379540723
314.4048446532
314.4758135849
314.4048024895

SCALARS	sig_11	float	1
LOOKUP_TABLE	default
14.1612007105
26.7598056299
15.243657357
23.6111538107
34.730536329
23.1039659596
14.6140922901
25.2582876013
14.6890182312
-5.2688661685
0.2327388777
-5.3448522373
-0.7611489987
4.9064805876
-0.7312578313
-5.5760595763
0.0740064093
-5.5912704882
-24.8266865681
-24.021691847
-24.8047388832
-24.1652098003
-23.3234145553
-24.1723539632
-24.7708237186
-24.0026149288
-24.7630893783

SCALARS	sig_22	float	1
LOOKUP_TABLE	default
8.201920906
19.9360269768
9.0644094382
18.4406537191
28.0216663412
18.4431671143
10.2492094335
18.0559954494
10.3126951676
-4.7443469003
-0.9472228223
-4.8059381546
-0.0450599285
3.9683965072
-0.0419201447
-4.9269447185
-0.8413790771
-4.9283728582
-18.4184679334
-17.7934127778
-18.4036219462
-17.7765702208
-17.1387373915
-17.770120639
-18.3505421722
-17.835232698
-18.3522648793

SCALARS	sig_33	float	1
LOOKUP_TABLE	default
24.3322081318
55.1476594124
24.8942096576
46.8794707279
76.6814481552
46.6900608509
25.1913211688
54.2746150914
25.1916165153
-6.558325834
9.8623083539
-6.619820439
5.4705412605
22.1138717478
5.4733399221
-6.6609480459
9.9176100663
-6.6757033526
-69.1634393588
-65.0463408074
-69.1940240245
-66.8909920736
-62.5903002435
-66.8717226141
-69.1739239214
-65.0254703433
-69.1500477679

SCALARS vonMises	float	1
LOOKUP_TABLE	default
72.2114369022
54.3150258114
71.6588042029
59.2968417044
40.5694201123
59.5737454782
71.5366483207
55.6513217472
71.6146436649
56.6260466731
52.1866765089
56.543865105
54.1354209578
51.1100640034
54.1714278067
56.520634118
52.3059079214
56.5307479844
66.6275280765
65.5774785057
66.7401272619
66.1641659605
65.0721948354
66.123418118
66.8180326331
65.4976231819
66.8079824069
