# vtk DataFile Version 2.0
Results
ASCII
DATASET UNSTRUCTURED_GRID
POINTS         27           float
0.0	0.0	0.0	
50.0	0.0	0.0	
100.0	0.0	0.0	
0.0	40.0	0.0	
50.0	40.0	0.0	
100.0	40.0	0.0	
0.0	80.0	0.0	
50.0	80.0	0.0	
100.0	80.0	0.0	
0.0	0.0	70.0	
50.0	0.0	70.0	
100.0	0.0	70.0	
0.0	40.0	70.0	
50.0	40.0	70.0	
100.0	40.0	70.0	
0.0	80.0	70.0	
50.0	80.0	70.0	
100.0	80.0	70.0	
0.0	0.0	140.0	
50.0	0.0	140.0	
100.0	0.0	140.0	
0.0	40.0	140.0	
50.0	40.0	140.0	
100.0	40.0	140.0	
0.0	80.0	140.0	
50.0	80.0	140.0	
100.0	80.0	140.0	

CELLS	8	72
 8	0	1	4	3	9	10	13	12	
 8	1	2	5	4	10	11	14	13	
 8	4	5	8	7	13	14	17	16	
 8	3	4	7	6	12	13	16	15	
 8	9	10	13	12	18	19	22	21	
 8	10	11	14	13	19	20	23	22	
 8	13	14	17	16	22	23	26	25	
 8	12	13	16	15	21	22	25	24	

CELL_TYPES	8
 12
 12
 12
 12
 12
 12
 12
 12

POINT_DATA	27
VECTORS	u 	float 
0.0	0.0	0.0
-0.0009368057	0.0	0.0
-0.0015645782	0.0	0.0
0.0	-0.0025480429	0.0
-0.0009421373	-0.0025702353	0.0
-0.002105865	-0.0024431238	0.0
0.0	-0.0044780032	0.0
-0.0010388293	-0.0056597938	0.0
-0.0019801262	-0.0043662631	0.0
-0.0254432548	-0.0228505696	0.006500622
-0.0009061441	-0.0219985664	0.0181167738
0.0235575701	-0.0227001731	0.0065076368
-0.025422772	-0.0025899541	0.014708808
-0.0009714891	-0.0025568218	0.0263993436
0.0235343871	-0.0024638279	0.0146970536
-0.0254907796	0.0175265506	0.0065440665
-0.0010118399	0.0170234489	0.0181490786
0.0234411077	0.0176536623	0.0065308125
-0.059250611	-0.0504650299	0.0644226015
-0.0009142115	-0.0506455672	0.0765876995
0.0574568427	-0.050346473	0.0644068128
-0.0594404718	-0.0026444073	0.0722928586
-0.0009563329	-0.0025610491	0.0846776673
0.0575024321	-0.0025137744	0.0722921181
-0.0593791123	0.0452439159	0.0644388514
-0.0010115819	0.0454588376	0.0766368929
0.0573673873	0.0453715483	0.0644317954

VECTORS	v 	float 
0.0	0.0	0.0
6.28139e-05	0.0	0.0
0.0001215473	0.0	0.0
0.0	6.24407e-05	0.0
5.59594e-05	5.47156e-05	0.0
0.0001152877	6.18283e-05	0.0
0.0	0.0001184846	0.0
6.4799e-05	0.0001145427	0.0
0.0001276496	0.0001174928	0.0
4.20261e-05	5.40609e-05	9.22372e-05
5.83275e-05	4.28633e-05	4.82084e-05
7.58089e-05	5.19995e-05	9.18279e-05
3.5374e-05	5.85857e-05	6.33065e-05
6.08139e-05	5.95959e-05	2.11025e-05
8.50905e-05	5.68342e-05	6.38123e-05
4.27283e-05	6.47769e-05	9.14284e-05
5.96381e-05	7.47266e-05	4.68606e-05
7.70972e-05	6.32686e-05	9.12281e-05
0.0001569751	0.000134101	2.93866e-05
5.94813e-05	0.0001247847	-2.84631e-05
-3.85006e-05	0.0001325075	2.87355e-05
0.0001402518	6.07586e-05	-7.1462e-06
5.93819e-05	5.91766e-05	-6.24286e-05
-2.09181e-05	5.89285e-05	-6.3647e-06
0.0001590354	-1.30689e-05	2.78865e-05
6.09182e-05	-5.8337e-06	-2.89608e-05
-3.73339e-05	-1.50961e-05	2.7322e-05

VECTORS	a 	float 
0.0	0.0	0.0
0.8939034559	0.0	0.0
1.7835331646	0.0	0.0
0.0	0.722680345	0.0
0.8835855934	0.7122147592	0.0
1.7707770605	0.7224862632	0.0
0.0	1.4390332223	0.0
0.896746987	1.429223529	0.0
1.7909902102	1.4386313137	0.0
-0.0078092927	0.0092639757	-3.0683102498
0.8874862627	-0.0032947173	-3.0868525137
1.7840948976	0.0070561008	-3.068865874
-0.0159646471	0.7174713809	-3.0770413995
0.8908858428	0.7189734952	-3.0928270545
1.79640576	0.7155284255	-3.0765381117
-0.0069523147	1.4273817399	-3.0691937142
0.8887789537	1.4397060598	-3.0887194311
1.7852589431	1.425708429	-3.0695725738
-0.0037566955	-0.0022219899	-6.1574010583
0.8892989146	-0.0172162518	-6.1935908476
1.7819202857	-0.0037659835	-6.1585192149
-0.0265807402	0.7201769876	-6.1774680314
0.8888573976	0.7184175742	-6.2090140075
1.8048464046	0.7183838187	-6.1763687716
-0.0017093121	1.4421775655	-6.1592702241
0.8907214317	1.4545493972	-6.194242997
1.7830446844	1.4401396442	-6.1602834259

SCALARS	theta	float 1
LOOKUP_TABLE	default
299.4313800777
299.4787048459
299.4342922532
299.4539558896
299.4966476688
299.4538209028
299.4348885554
299.474305855
299.434782945
305.1283252518
305.1517607875
305.1280293194
305.1388816165
305.1632176745
305.1390198457
305.1273642761
305.1520561555
305.1273574382
311.5008005367
311.5093576916
311.5007282942
311.5023848046
311.510980592
311.5023092754
311.5010257337
311.5093726951
311.5010545771

SCALARS	sig_11	float	1
LOOKUP_TABLE	default
14.1307983691
23.1988031094
14.9286905886
20.9925446205
28.9793661525
20.6103919477
14.4625776262
22.1149352971
14.5286617516
-7.0030491781
-3.240089
-7.0605485837
-4.0307986777
-0.1439300309
-4.0085857825
-7.2263612369
-3.354250293
-7.238218329
-14.4957533558
-14.275106382
-14.4789286672
-14.5781325965
-14.3321946939
-14.5837548839
-14.4551908241
-14.2619117344
-14.449284728

SCALARS	sig_22	float	1
LOOKUP_TABLE	default
9.1150801016
17.5593947869
9.7386065519
16.5403349956
23.4205895814
16.5332487386
10.606688809
16.1963838586
10.6504990393
-5.9699307975
-3.3971361497
-6.0170975896
-2.9018554764
-0.1693257208
-2.9003581385
-6.1020715788
-3.3183315033
-6.1041463969
-10.4518438972
-10.2770916853
-10.4400148611
-10.6452049416
-10.4628330424
-10.6402823995
-10.4019796458
-10.3077026336
-10.4027387096

SCALARS	sig_33	float	1
LOOKUP_TABLE	default
23.0508206452
45.3168259886
23.4580346902
39.4847886811
61.0273813484
39.3430547928
23.6742173063
44.6889930779
23.6795961617
-9.4640521775
1.3278831622
-9.5108443561
-1.8265901057
9.1341989383
-1.8244979701
-9.538782172
1.3699298784
-9.5492049781
-41.8222054276
-40.974817318
-41.8440846009
-42.4127437162
-41.433047622
-42.3987242185
-41.8306935607
-40.9599980389
-41.8125497943

SCALARS vonMises	float	1
LOOKUP_TABLE	default
59.9363299001
44.9927731307
59.5219917264
48.5096337241
31.7845981726
48.7184756565
59.415962682
45.9596784009
59.4689707381
40.4419355771
36.916532869
40.3620302713
38.512351865
35.8579303356
38.550172697
40.3396179745
37.066239284
40.3474479493
42.8140535879
42.9178978142
42.8975440544
43.0626728332
43.1161738827
43.0312055827
42.9531476724
42.8613929289
42.9468773471
