# vtk DataFile Version 2.0
Results
ASCII
DATASET UNSTRUCTURED_GRID
POINTS         27           float
0.0	0.0	0.0	
50.0	0.0	0.0	
100.0	0.0	0.0	
0.0	40.0	0.0	
50.0	40.0	0.0	
100.0	40.0	0.0	
0.0	80.0	0.0	
50.0	80.0	0.0	
100.0	80.0	0.0	
0.0	0.0	70.0	
50.0	0.0	70.0	
100.0	0.0	70.0	
0.0	40.0	70.0	
50.0	40.0	70.0	
100.0	40.0	70.0	
0.0	80.0	70.0	
50.0	80.0	70.0	
100.0	80.0	70.0	
0.0	0.0	140.0	
50.0	0.0	140.0	
100.0	0.0	140.0	
0.0	40.0	140.0	
50.0	40.0	140.0	
100.0	40.0	140.0	
0.0	80.0	140.0	
50.0	80.0	140.0	
100.0	80.0	140.0	

CELLS	8	72
 8	0	1	4	3	9	10	13	12	
 8	1	2	5	4	10	11	14	13	
 8	4	5	8	7	13	14	17	16	
 8	3	4	7	6	12	13	16	15	
 8	9	10	13	12	18	19	22	21	
 8	10	11	14	13	19	20	23	22	
 8	13	14	17	16	22	23	26	25	
 8	12	13	16	15	21	22	25	24	

CELL_TYPES	8
 12
 12
 12
 12
 12
 12
 12
 12

POINT_DATA	27
VECTORS	u 	float 
0.0	0.0	0.0
-0.0137859475	0.0	0.0
-0.0271257096	0.0	0.0
0.0	-0.0127017721	0.0
-0.0138010532	-0.012734698	0.0
-0.0279199585	-0.0125333643	0.0
0.0	-0.0244349753	0.0
-0.0139514595	-0.026279752	0.0
-0.0277781089	-0.0242440911	0.0
-0.03186007	-0.02714308	-0.0122244952
-0.013740833	-0.0257080829	0.0062474385
0.0042703568	-0.0269018365	-0.0122167736
-0.0317803991	-0.0127701167	0.0005519699
-0.0138437673	-0.0127152626	0.019103516
0.004170481	-0.0125676944	0.0005305468
-0.0319416146	0.0013779121	-0.0121520823
-0.0139104094	0.0004962433	0.0063042732
0.0040866967	0.0015810417	-0.0121742259
-0.0975730123	-0.0828529534	0.0532020268
-0.0137507238	-0.0829765997	0.0780144969
0.0701230861	-0.0826624781	0.053174651
-0.0976833974	-0.0128604849	0.0703290151
-0.0138193423	-0.0127271415	0.0954529047
0.0700083641	-0.0126512382	0.0703247065
-0.0977782989	0.0572381744	0.0532353709
-0.0139068796	0.0574204602	0.0780980002
0.0699794925	0.0574422817	0.0532211775

VECTORS	v 	float 
0.0	0.0	0.0
5.29763e-05	0.0	0.0
0.0001097285	0.0	0.0
0.0	2.42796e-05	0.0
6.04207e-05	2.99957e-05	0.0
0.0001175717	2.39538e-05	0.0
0.0	5.19818e-05	0.0
5.11103e-05	5.74904e-05	0.0
0.0001049605	5.1545e-05	0.0
-2.69593e-05	-6.20519e-05	0.000101398
5.74373e-05	-5.36375e-05	8.20062e-05
0.0001407416	-6.08669e-05	0.0001017409
-1.78534e-05	2.69549e-05	8.8062e-05
5.5155e-05	2.60907e-05	6.80435e-05
0.0001293169	2.80154e-05	8.79225e-05
-2.73261e-05	0.0001149937	0.000101818
5.68174e-05	0.000106657	8.34858e-05
0.0001402215	0.0001158471	0.0001020737
0.0002681822	0.0002226195	0.0001016927
5.60987e-05	0.0002333771	1.45647e-05
-0.0001556263	0.0002233966	0.0001025533
0.0002876115	2.52903e-05	2.65982e-05
5.6536e-05	2.62097e-05	-6.28873e-05
-0.0001750299	2.62399e-05	2.59336e-05
0.0002669655	-0.0001718949	0.0001029221
5.53112e-05	-0.0001811866	1.50563e-05
-0.0001561923	-0.0001707296	0.0001036991

VECTORS	a 	float 
0.0	0.0	0.0
-0.8961840068	0.0	0.0
-1.7910059807	0.0	0.0
0.0	-0.7188816416	0.0
-0.8911379167	-0.7133201649	0.0
-1.7834289422	-0.7187853429	0.0
0.0	-1.4353096013	0.0
-0.8974147849	-1.4284570167	0.0
-1.7940745644	-1.435118515	0.0
-0.0006796105	-0.0038583467	3.0772583641
-0.8930690314	0.0012580273	3.0833453721
-1.7859080543	-0.0029453785	3.077540314
0.0024568051	-0.7160040509	3.0794719698
-0.8946464553	-0.716833285	3.0838288878
-1.7912842243	-0.7151910073	3.0791991544
-0.0010739664	-1.4288110981	3.0776328311
-0.8936000806	-1.4343463171	3.0840889056
-1.7863829081	-1.4280980995	3.0778401674
0.004711916	0.0027089842	6.1568943783
-0.8939337515	0.0111618498	6.1754965295
-1.7924554294	0.0033445208	6.1574164763
0.0157949797	-0.7172416472	6.1680603301
-0.893683223	-0.71645027	6.1839679986
-1.8033329696	-0.7165154104	6.1675361601
0.0039117636	-1.4370544197	6.1576864954
-0.8945088367	-1.4442286815	6.175726088
-1.792916944	-1.4362390509	6.1581581098

SCALARS	theta	float 1
LOOKUP_TABLE	default
297.0419516198
297.0831503943
297.0441207541
297.0550350726
297.0912402483
297.0558689942
297.0464393618
297.0784820616
297.0463064666
303.6401298072
303.7302732982
303.6395908358
303.6862358804
303.7772375057
303.6860572086
303.6393316295
303.7311438968
303.6393322183
316.5684119716
316.7257170939
316.5684404807
316.6526063899
316.8100373195
316.6525938346
316.5688100834
316.725688952
316.568726005

SCALARS	sig_11	float	1
LOOKUP_TABLE	default
8.8292048372
23.4880345941
10.0435191539
19.6846497349
32.6664160917
19.1359636317
9.343154056
21.7530372394
9.4026878644
0.0330784492
6.9032757107
-0.0498021962
5.8188937277
12.8737428308
5.8516925483
-0.3197621728
6.7198923008
-0.3350061718
-35.4683582883
-33.7009198278
-35.4455375973
-33.6039897058
-31.7922533032
-33.6116219252
-35.4036528099
-33.6779423624
-35.3961206745

SCALARS	sig_22	float	1
LOOKUP_TABLE	default
3.3187356319
16.9748313515
4.3169162779
15.0882179184
26.2753140982
15.1148330004
5.6621124791
14.8131748891
5.7434951621
-0.6056719293
4.1753532357
-0.6714949383
5.4640356847
10.489010411
5.4694151962
-0.8160029836
4.294917075
-0.8147337348
-26.8650646554
-25.5264974621
-26.8506011521
-24.859935689
-23.5044796582
-24.85335321
-26.7872248495
-25.5738103799
-26.7908434686

SCALARS	sig_33	float	1
LOOKUP_TABLE	default
17.4987930808
53.1759896896
18.1438050785
43.2884932697
77.7837608329
43.0819600359
18.4860029704
52.1648893953
18.4778747575
1.4756009653
22.634931041
1.4083021704
17.4326647903
38.8353170434
17.4353699864
1.3578901459
22.6966760055
1.3408971101
-95.7565392511
-86.7569683693
-95.7931648401
-88.8095197324
-79.5985296162
-88.7877575154
-95.7664071508
-86.7323039266
-95.7412064326

SCALARS vonMises	float	1
LOOKUP_TABLE	default
68.5926263162
51.9282788459
67.9908721653
57.769609467
42.3633810688
58.070316712
67.9015943542
53.4813604142
68.0010695757
67.3512222699
63.4089589684
67.3201220205
64.9213071509
61.829406939
64.9365987614
67.3146612321
63.4017136844
67.3254387853
87.2830722243
84.4647317322
87.4087003424
85.6778177977
82.9028431402
85.6352106754
87.4992735812
84.3716551676
87.4858115336
