# vtk DataFile Version 2.0
Results
ASCII
DATASET UNSTRUCTURED_GRID
POINTS         27           float
0.0	0.0	0.0	
50.0	0.0	0.0	
100.0	0.0	0.0	
0.0	40.0	0.0	
50.0	40.0	0.0	
100.0	40.0	0.0	
0.0	80.0	0.0	
50.0	80.0	0.0	
100.0	80.0	0.0	
0.0	0.0	70.0	
50.0	0.0	70.0	
100.0	0.0	70.0	
0.0	40.0	70.0	
50.0	40.0	70.0	
100.0	40.0	70.0	
0.0	80.0	70.0	
50.0	80.0	70.0	
100.0	80.0	70.0	
0.0	0.0	140.0	
50.0	0.0	140.0	
100.0	0.0	140.0	
0.0	40.0	140.0	
50.0	40.0	140.0	
100.0	40.0	140.0	
0.0	80.0	140.0	
50.0	80.0	140.0	
100.0	80.0	140.0	

CELLS	8	72
 8	0	1	4	3	9	10	13	12	
 8	1	2	5	4	10	11	14	13	
 8	4	5	8	7	13	14	17	16	
 8	3	4	7	6	12	13	16	15	
 8	9	10	13	12	18	19	22	21	
 8	10	11	14	13	19	20	23	22	
 8	13	14	17	16	22	23	26	25	
 8	12	13	16	15	21	22	25	24	

CELL_TYPES	8
 12
 12
 12
 12
 12
 12
 12
 12

POINT_DATA	27
VECTORS	u 	float 
0.0	0.0	0.0
-0.0002575019	0.0	0.0
-0.0002135636	0.0	0.0
0.0	-0.0019696187	0.0
-0.0002630835	-0.0019920772	0.0
-0.0007423096	-0.0018674317	0.0
0.0	-0.003337058	0.0
-0.0003569065	-0.0044901726	0.0
-0.0006185336	-0.0032283622	0.0
-0.0248718407	-0.0223519831	0.0073011127
-0.0002279362	-0.0215219965	0.0186191719
0.0243444054	-0.0222055523	0.0073079503
-0.0248521073	-0.0020109192	0.0153010447
-0.0002915097	-0.0019785785	0.0266920624
0.0243223389	-0.0018881152	0.0152896697
-0.0249180179	0.0181897304	0.0073433228
-0.0003308298	0.0176997568	0.0186505797
0.0242309703	0.01831351	0.0073303964
-0.0576885736	-0.0491373235	0.0647381849
-0.0002358412	-0.0493143642	0.0765375798
0.0572506789	-0.0490220611	0.0647228099
-0.0578755326	-0.0020637388	0.0723612701
-0.0002767919	-0.0019826602	0.0843751493
0.0572972139	-0.001936705	0.072360625
-0.0578135038	0.0450758002	0.0647538146
-0.0003304712	0.0452860798	0.076585439
0.0571637381	0.0451999207	0.064746963

VECTORS	v 	float 
0.0	0.0	0.0
5.63636e-05	0.0	0.0
0.0001089985	0.0	0.0
0.0	5.97275e-05	0.0
5.01087e-05	5.27826e-05	0.0
0.0001032789	5.90921e-05	0.0
0.0	0.0001132792	0.0
5.82819e-05	0.0001104712	0.0
0.0001148586	0.0001122915	0.0
3.77182e-05	5.25757e-05	9.70703e-05
5.23632e-05	4.16371e-05	5.0472e-05
6.80842e-05	5.07281e-05	9.67234e-05
3.07563e-05	5.63293e-05	6.62137e-05
5.46734e-05	5.73255e-05	2.13482e-05
7.75436e-05	5.47612e-05	6.66765e-05
3.82768e-05	6.16415e-05	9.63952e-05
5.3512e-05	7.15092e-05	4.91294e-05
6.92472e-05	6.02763e-05	9.62192e-05
0.0001419935	0.0001275858	3.05208e-05
5.35599e-05	0.0001183052	-2.85293e-05
-3.53087e-05	0.000126461	2.99459e-05
0.0001246803	5.82453e-05	-7.279e-06
5.32895e-05	5.69014e-05	-6.37489e-05
-1.76002e-05	5.69112e-05	-6.5533e-06
0.0001435061	-1.15461e-05	2.91953e-05
5.45118e-05	-3.958e-06	-2.90853e-05
-3.46005e-05	-1.30479e-05	2.86784e-05

VECTORS	a 	float 
0.0	0.0	0.0
0.8934862738	0.0	0.0
1.7825532346	0.0	0.0
0.0	0.7228187148	0.0
0.8828485533	0.7120031806	0.0
1.7694260183	0.7226067194	0.0
0.0	1.4390824635	0.0
0.896412024	1.4289774682	0.0
1.7902478851	1.4386474498	0.0
-0.0086331472	0.0093903972	-3.0675197265
0.8868670212	-0.0035293163	-3.0868445471
1.7837234267	0.0071076314	-3.0680895814
-0.0170036829	0.717433635	-3.0767015352
0.8903740378	0.7189863876	-3.0932037268
1.796377152	0.7154262364	-3.0761783181
-0.0077519385	1.4272385966	-3.0684284776
0.8882054188	1.4399100185	-3.0887739105
1.7849328276	1.4255105865	-3.0688174178
-0.0042748772	-0.0023478951	-6.1573860548
0.8887351931	-0.0176973108	-6.194575391
1.7812947245	-0.003941896	-6.1585329156
-0.0277462099	0.7202278347	-6.1779826071
0.8882800754	0.718410352	-6.2104138574
1.8048776398	0.718376045	-6.1768487785
-0.0021590969	1.4423913385	-6.159315255
0.8902028363	1.4550346832	-6.195249342
1.7824532521	1.4402865966	-6.1603554079

SCALARS	theta	float 1
LOOKUP_TABLE	default
299.5730280447
299.6194770172
299.5758915569
299.5952507119
299.6371510568
299.5951161442
299.5764644532
299.6151491987
299.5763503551
305.1472206268
305.1694372598
305.1469352348
305.1572260625
305.1803232316
305.1573623883
305.1462701321
305.169715673
305.146265537
311.3277596972
311.3345656831
311.3276890936
311.3285258459
311.3353714818
311.3284552045
311.3279772678
311.3345775794
311.3280079348

SCALARS	sig_11	float	1
LOOKUP_TABLE	default
13.9021211621
22.7316266954
14.6796153214
20.5861782443
28.3623925031
20.213754359
14.2257067844
21.6761359901
14.2901715869
-6.933026814
-3.2760460135
-6.98911082
-4.0478033682
-0.2700638514
-4.0261906615
-7.150578202
-3.3872352845
-7.1621128677
-13.9985891998
-13.7969576073
-13.9821896014
-14.0989700757
-13.8727610039
-14.1044572738
-13.9590251745
-13.7841209173
-13.9532969011

SCALARS	sig_22	float	1
LOOKUP_TABLE	default
8.9912879438
17.2152829083
9.59873545
16.2229375645
22.9233424984
16.2161074396
10.4446701997
15.8876255083
10.4873158415
-5.9038206872
-3.4035237498
-5.9498453336
-2.9277714557
-0.2718206368
-2.9263786939
-6.0325201771
-3.3266597629
-6.034543065
-10.0802044565
-9.9196532589
-10.0686680983
-10.2928004505
-10.1248884354
-10.2879782796
-10.0315710056
-9.9494756906
-10.0323273351

SCALARS	sig_33	float	1
LOOKUP_TABLE	default
22.6474903557
44.3326773713
23.0441297788
38.6576712606
59.6386203109
38.5196119476
23.2549678765
43.7213041253
23.2602951518
-9.3817829027
1.0908020645
-9.4274403206
-1.9806864204
8.6565609115
-1.9787144358
-9.4545518773
1.1317968722
-9.4646688152
-40.4538194059
-39.7039081841
-40.4751637496
-41.1084733275
-40.2297136734
-41.0947772213
-40.4620593346
-39.6894898267
-40.4444060282

SCALARS vonMises	float	1
LOOKUP_TABLE	default
58.6552105483
44.0299416127
58.2518999697
47.4528673813
31.047608766
47.6559429455
58.1483531121
44.9705559379
58.2002164023
39.3909216123
35.9439800644
39.3128455001
37.505092514
34.8907912617
37.542022872
39.2910618142
36.0914074136
39.2988991486
41.5312051147
41.6504841836
41.6126474823
41.7866445061
41.8565513318
41.7557914661
41.6669491844
41.5952840751
41.6608276001
