# vtk DataFile Version 2.0
Results
ASCII
DATASET UNSTRUCTURED_GRID
POINTS         27           float
0.0	0.0	0.0	
50.0	0.0	0.0	
100.0	0.0	0.0	
0.0	40.0	0.0	
50.0	40.0	0.0	
100.0	40.0	0.0	
0.0	80.0	0.0	
50.0	80.0	0.0	
100.0	80.0	0.0	
0.0	0.0	70.0	
50.0	0.0	70.0	
100.0	0.0	70.0	
0.0	40.0	70.0	
50.0	40.0	70.0	
100.0	40.0	70.0	
0.0	80.0	70.0	
50.0	80.0	70.0	
100.0	80.0	70.0	
0.0	0.0	140.0	
50.0	0.0	140.0	
100.0	0.0	140.0	
0.0	40.0	140.0	
50.0	40.0	140.0	
100.0	40.0	140.0	
0.0	80.0	140.0	
50.0	80.0	140.0	
100.0	80.0	140.0	

CELLS	8	72
 8	0	1	4	3	9	10	13	12	
 8	1	2	5	4	10	11	14	13	
 8	4	5	8	7	13	14	17	16	
 8	3	4	7	6	12	13	16	15	
 8	9	10	13	12	18	19	22	21	
 8	10	11	14	13	19	20	23	22	
 8	13	14	17	16	22	23	26	25	
 8	12	13	16	15	21	22	25	24	

CELL_TYPES	8
 12
 12
 12
 12
 12
 12
 12
 12

POINT_DATA	27
VECTORS	u 	float 
0.0	0.0	0.0
-0.0130407939	0.0	0.0
-0.0256983596	0.0	0.0
0.0	-0.009243934	0.0
-0.0130894655	-0.0092715606	0.0
-0.0264406381	-0.00901555	0.0
0.0	-0.0173054896	0.0
-0.0132639789	-0.0195269669	0.0
-0.0265082155	-0.0170079412	0.0
-0.015457747	-0.0083840444	-0.0241342366
-0.0129988843	-0.0059340674	-0.0015766255
-0.010638344	-0.0080659109	-0.0241376754
-0.0154346884	-0.0093300192	-0.0093437645
-0.0131262364	-0.0092512631	0.013145616
-0.0107564178	-0.0090600115	-0.0093835638
-0.0155817727	-0.0105493062	-0.0240381779
-0.0132243737	-0.0122995003	-0.0014966742
-0.010877839	-0.0102803482	-0.0240734919
-0.1270207202	-0.1077818938	0.0351349068
-0.0129975987	-0.1066945587	0.0795350751
0.1010754182	-0.107526106	0.0350911762
-0.1269375461	-0.0094489255	0.0683003755
-0.0130943607	-0.0092743288	0.1129320401
0.1007199994	-0.0091706707	0.0682833736
-0.1272880487	0.0890132154	0.0351880558
-0.0132065269	0.0880197182	0.0796469351
0.1008804571	0.0892843976	0.0351588357

VECTORS	v 	float 
0.0	0.0	0.0
-9.15662e-05	0.0	0.0
-0.0001794934	0.0	0.0
0.0	-0.0001359028	0.0
-9.92862e-05	-0.0001531544	0.0
-0.0002013318	-0.0001386701	0.0
0.0	-0.0002778125	0.0
-9.07622e-05	-0.0003011945	0.0
-0.0001759648	-0.0002831793	0.0
-0.0003767592	-0.0004238922	0.0001260563
-9.71102e-05	-0.0004559391	8.06672e-05
0.0001817333	-0.0004265643	0.0001258779
-0.0003752566	-0.0001456239	0.0001123033
-9.44444e-05	-0.0001433259	7.90868e-05
0.0001869693	-0.000147818	0.0001142673
-0.0003754932	0.0001341219	0.0001252354
-9.5066e-05	0.0001676238	8.01139e-05
0.0001839682	0.0001322658	0.0001251707
0.0003642252	0.0003186854	0.0003234639
-9.63981e-05	0.0002535402	-5.01375e-05
-0.0005569923	0.0003165666	0.0003239768
0.0003352334	-0.0001427408	1.62288e-05
-9.63756e-05	-0.0001451679	-0.0003467129
-0.0005279565	-0.0001450217	1.72838e-05
0.0003664066	-0.0006047331	0.0003223101
-9.47498e-05	-0.0005431066	-5.04289e-05
-0.0005555391	-0.0006070527	0.000322852

VECTORS	a 	float 
0.0	0.0	0.0
0.8961301893	0.0	0.0
1.7915110286	0.0	0.0
0.0	0.7172656834	0.0
0.8936046613	0.7151954593	0.0
1.7878232998	0.7173750676	0.0
0.0	1.4334526326	0.0
0.8969020514	1.4311181586	0.0
1.7932043252	1.4336589704	0.0
0.0024499637	0.003059227	-3.0796646155
0.8946285912	0.0007188287	-3.0825738359
1.7870629787	0.0026559487	-3.0798076
0.0008470338	0.7162770148	-3.0803152424
0.8954122649	0.7165693951	-3.0827783502
1.7897325494	0.7158924819	-3.0802781219
0.0026583681	1.4297901799	-3.0798331336
0.8948337456	1.4321970386	-3.0829986136
1.7872118964	1.4294297327	-3.0799479017
-0.0041093509	-0.0030090116	-6.1577200446
0.8950876768	-0.0063153803	-6.1662779293
1.7942492436	-0.0033021023	-6.158071992
-0.0087798696	0.7168145059	-6.1627936665
0.8949639563	0.7164942585	-6.1702254369
1.7987582025	0.7164863206	-6.1625271639
-0.0037535864	1.4365895322	-6.1581036632
0.8953650025	1.4393473203	-6.1664219322
1.7944805043	1.4362211835	-6.1584293709

SCALARS	theta	float 1
LOOKUP_TABLE	default
298.2473116095
298.2025306052
298.2427643136
298.2103359546
298.160578894
298.2140916812
298.2536702078
298.1980732753
298.2508625401
299.6783767561
299.8057543648
299.6780184157
299.8010858286
299.9281182274
299.7998916636
299.6776209493
299.8079155528
299.6781586318
322.9215112673
323.2700880918
322.9219841338
323.2241024667
323.573425208
323.2247077498
322.9222407235
323.2692880659
322.9218203967

SCALARS	sig_11	float	1
LOOKUP_TABLE	default
-26.5237166048
-7.3636225483
-25.2397709562
-13.4541060612
3.8552930779
-13.8827826217
-25.9818108593
-9.5233971821
-26.0801110651
28.7124999562
41.7413464851
28.6342237685
39.3742128667
52.586792841
39.4007389556
28.2828002464
41.5087212092
28.2770424834
-79.1384473436
-69.45205564
-79.1243807523
-70.3147428347
-60.5684676033
-70.3208713048
-79.0595886523
-69.41651136
-79.0581366157

SCALARS	sig_22	float	1
LOOKUP_TABLE	default
-26.4242631817
-8.6803748293
-25.1509440851
-12.2519733441
2.520039345
-12.0344249763
-23.611485934
-11.3282793878
-23.4393839416
22.2919962476
31.3583976007
22.2393632565
33.3468472393
42.6807499955
33.3632354795
22.0359600337
31.497685294
22.0558336629
-61.7688859801
-54.9421740203
-61.7656736712
-52.370113756
-45.5199434691
-52.3680610545
-61.6752671208
-54.9942294731
-61.6886195176

SCALARS	sig_33	float	1
LOOKUP_TABLE	default
-31.016206141
13.9062188111
-30.2459812329
-0.6628528909
42.7509478898
-0.8228703626
-29.8466458902
12.6571663456
-29.8925738984
45.1418433381
83.5664928747
45.0718154573
75.1649482669
113.7982442967
75.1591479874
45.005042384
83.6356224345
44.9814055786
-196.6415101002
-162.106400715
-196.694639456
-166.3777516237
-131.5940348593
-166.3528630039
-196.648140656
-162.0689795183
-196.6267278255

SCALARS vonMises	float	1
LOOKUP_TABLE	default
19.9125859131
24.1226946142
19.8525071426
24.8180209904
36.2588463967
25.0964206105
21.4563454922
25.743785252
21.7523535677
123.7276041044
113.3091256245
124.1288770635
110.6457810787
96.5153074088
110.5898423415
124.4115406068
112.7462027994
124.3855874421
158.913355465
146.1081918061
159.0455053973
151.273489861
139.2592775057
151.2436728327
159.1691216568
145.987450519
159.1390812873
