# vtk DataFile Version 2.0
Results
ASCII
DATASET UNSTRUCTURED_GRID
POINTS         27           float
0.0	0.0	0.0	
50.0	0.0	0.0	
100.0	0.0	0.0	
0.0	40.0	0.0	
50.0	40.0	0.0	
100.0	40.0	0.0	
0.0	80.0	0.0	
50.0	80.0	0.0	
100.0	80.0	0.0	
0.0	0.0	70.0	
50.0	0.0	70.0	
100.0	0.0	70.0	
0.0	40.0	70.0	
50.0	40.0	70.0	
100.0	40.0	70.0	
0.0	80.0	70.0	
50.0	80.0	70.0	
100.0	80.0	70.0	
0.0	0.0	140.0	
50.0	0.0	140.0	
100.0	0.0	140.0	
0.0	40.0	140.0	
50.0	40.0	140.0	
100.0	40.0	140.0	
0.0	80.0	140.0	
50.0	80.0	140.0	
100.0	80.0	140.0	

CELLS	8	72
 8	0	1	4	3	9	10	13	12	
 8	1	2	5	4	10	11	14	13	
 8	4	5	8	7	13	14	17	16	
 8	3	4	7	6	12	13	16	15	
 8	9	10	13	12	18	19	22	21	
 8	10	11	14	13	19	20	23	22	
 8	13	14	17	16	22	23	26	25	
 8	12	13	16	15	21	22	25	24	

CELL_TYPES	8
 12
 12
 12
 12
 12
 12
 12
 12

POINT_DATA	27
VECTORS	u 	float 
0.0	0.0	0.0
0.0026041309	0.0	0.0
0.0053049021	0.0	0.0
0.0	0.0078022496	0.0
0.0025028888	0.0077482909	0.0
0.0049438469	0.008068539	0.0
0.0	0.0167384319	0.0
0.0023341323	0.0145763535	0.0
0.0044575926	0.0171587512	0.0
0.021277075	0.0285600373	-0.0284883576
0.0026198016	0.0329452261	-0.0090404817
-0.0160697754	0.0289193147	-0.0285194708
0.0213553344	0.0076820819	-0.0167465877
0.0024891357	0.007789269	0.0021458529
-0.0163688879	0.0079991276	-0.0168200071
0.0211102202	-0.013462465	-0.0283877778
0.0023599234	-0.0171015931	-0.0089273384
-0.0163452944	-0.0131495432	-0.0284405307
-0.1168381631	-0.1001593048	-0.0018561864
0.0026522792	-0.0951529475	0.0538967022
0.1221658991	-0.0998536098	-0.0019222419
-0.1159765704	0.0075502347	0.0424889246
0.0025301311	0.0077451793	0.0980017363
0.1210318309	0.0078719451	0.0424472596
-0.1171402961	0.1153852681	-0.0017747738
0.0024063756	0.1105164161	0.054021708
0.1219358606	0.1156972881	-0.0018306082

VECTORS	v 	float 
0.0	0.0	0.0
-0.0023479805	0.0	0.0
-0.0046906374	0.0	0.0
0.0	-0.0018522808	0.0
-0.002340339	-0.0018436002	0.0
-0.0046845972	-0.0018495884	0.0
0.0	-0.0036883378	0.0
-0.0023523246	-0.0037003388	0.0
-0.0047039914	-0.0036845151	0.0
-6.27874e-05	1.61621e-05	0.0074228725
-0.0023425151	5.31086e-05	0.0076684441
-0.0046237936	2.10599e-05	0.0074231256
-6.03785e-05	-0.0018486119	0.0075759573
-0.0023463807	-0.0018490155	0.0078174569
-0.0046311552	-0.001844394	0.0075750375
-6.48031e-05	-0.0037172658	0.0074242874
-0.0023457955	-0.0037474073	0.00767069
-0.004627122	-0.003713268	0.0074242094
-0.0013473721	-0.0011469957	0.0156470062
-0.0023437553	-0.0011162422	0.016200651
-0.0033394905	-0.001143092	0.015647244
-0.0013318186	-0.0018518643	0.016060643
-0.0023444735	-0.0018487608	0.0166117773
-0.0033576485	-0.0018475751	0.0160595831
-0.0013517147	-0.0025552374	0.0156487796
-0.0023470935	-0.0025828358	0.0162022467
-0.0033424719	-0.0025508573	0.015649175

VECTORS	a 	float 
0.0	0.0	0.0
-0.6768131356	0.0	0.0
-1.3532968598	0.0	0.0
0.0	-0.5419693939	0.0
-0.6757362096	-0.5408589551	0.0
-1.3517503205	-0.5419678689	0.0
0.0	-1.0834563371	0.0
-0.6770609822	-1.0820747948	0.0
-1.3539142273	-1.0834496937	0.0
-0.0033121573	-0.0036423148	2.32645177
-0.6761548685	-0.0030116922	2.3271845336
-1.3491020822	-0.0034671483	2.3265027577
-0.0030050284	-0.5413990147	2.3264821364
-0.6764815843	-0.5415665484	2.3270434689
-1.3498488776	-0.5412445401	2.3264376693
-0.0033836273	-1.0792870513	2.3265060075
-0.6762521967	-1.0800063944	2.3273562241
-1.3491853286	-1.0791565409	2.3265513141
0.005372541	0.0043408716	4.649527173
-0.6763381916	0.0052545534	4.650798558
-1.3580206553	0.0044596185	4.6496382248
0.0069105199	-0.5416470924	4.6493374288
-0.6762812989	-0.5414977107	4.6502345523
-1.3595144901	-0.5415075735	4.6492314844
0.0052060382	-1.0876163994	4.6496857959
-0.6764537299	-1.0882772294	4.6508402276
-1.3581082219	-1.0874541317	4.6497936708

SCALARS	theta	float 1
LOOKUP_TABLE	default
302.7492381189
302.4650371989
302.7337274494
302.632248247
302.3806638302
302.6290949352
302.7224921511
302.4966301386
302.7252556319
294.5515486495
294.2215765016
294.5537093324
294.3487387969
294.0141357062
294.348937946
294.5578710901
294.2184209533
294.5575147225
325.2921426615
324.8258967531
325.2921894414
324.9739665174
324.5076599036
324.9738358677
325.2905091478
324.8261277684
325.290553931

SCALARS	sig_11	float	1
LOOKUP_TABLE	default
-81.5299718275
-58.6128665038
-80.5903968396
-67.7565502027
-46.8814203056
-67.6330216755
-80.7245406597
-61.2952469228
-81.2587023698
57.1472981945
84.7685901527
57.0843751047
80.9540668138
108.606579628
80.9413138343
56.6999366334
84.532417681
56.7193363691
-136.5620312476
-100.2867367584
-136.5632146837
-102.7990113356
-66.4453237191
-102.7862303732
-136.461542925
-100.2482696598
-136.4803740815

SCALARS	sig_22	float	1
LOOKUP_TABLE	default
-71.242625571
-50.5585288567
-69.8517454654
-56.2653925694
-38.928206574
-55.5400086533
-68.1438574063
-53.5723954336
-67.9402880439
44.4802266308
64.1490941341
44.4525781048
69.0607641964
88.87182495
69.0830529176
44.2058483694
64.3002522747
44.2590055168
-110.0921889329
-83.6899286623
-110.1092552838
-74.5717351379
-48.1352929731
-74.5676042201
-109.9826224501
-83.7456708873
-110.0210193596

SCALARS	sig_33	float	1
LOOKUP_TABLE	default
-120.5664178285
-75.3993539386
-119.8200985398
-93.0390392723
-50.1251803671
-92.8873614163
-119.0314126828
-77.0903121344
-119.2751543081
80.2306661923
139.5969015364
80.1409081221
130.0046150973
189.282961087
129.958662468
80.0977058133
139.6767123188
80.060807855
-308.5387457156
-230.7669985015
-308.591634777
-235.8201940776
-157.8415353766
-235.7728755032
-308.5026645552
-230.7478706999
-308.5061154213

SCALARS vonMises	float	1
LOOKUP_TABLE	default
107.1120147156
91.5938613412
107.7575182856
78.6438466727
52.0366056375
78.7466399797
108.7891621383
90.4031292285
108.6223836985
209.5486141903
173.2691591832
209.8996592352
167.4627468516
119.1241114807
167.4950445758
210.2210392517
172.4177035853
210.1131507424
217.8807239169
188.7357229301
217.9661796511
199.3813874344
171.4049322163
199.3772674094
218.1271842771
188.6074543129
218.0706703366
