# vtk DataFile Version 2.0
Results
ASCII
DATASET UNSTRUCTURED_GRID
POINTS         27           float
0.0	0.0	0.0	
50.0	0.0	0.0	
100.0	0.0	0.0	
0.0	40.0	0.0	
50.0	40.0	0.0	
100.0	40.0	0.0	
0.0	80.0	0.0	
50.0	80.0	0.0	
100.0	80.0	0.0	
0.0	0.0	70.0	
50.0	0.0	70.0	
100.0	0.0	70.0	
0.0	40.0	70.0	
50.0	40.0	70.0	
100.0	40.0	70.0	
0.0	80.0	70.0	
50.0	80.0	70.0	
100.0	80.0	70.0	
0.0	0.0	140.0	
50.0	0.0	140.0	
100.0	0.0	140.0	
0.0	40.0	140.0	
50.0	40.0	140.0	
100.0	40.0	140.0	
0.0	80.0	140.0	
50.0	80.0	140.0	
100.0	80.0	140.0	

CELLS	8	72
 8	0	1	4	3	9	10	13	12	
 8	1	2	5	4	10	11	14	13	
 8	4	5	8	7	13	14	17	16	
 8	3	4	7	6	12	13	16	15	
 8	9	10	13	12	18	19	22	21	
 8	10	11	14	13	19	20	23	22	
 8	13	14	17	16	22	23	26	25	
 8	12	13	16	15	21	22	25	24	

CELL_TYPES	8
 12
 12
 12
 12
 12
 12
 12
 12

POINT_DATA	27
VECTORS	u 	float 
0.0	0.0	0.0
-0.0090303731	0.0	0.0
-0.0177675257	0.0	0.0
0.0	-0.004057846	0.0
-0.0091059564	-0.0040829417	0.0
-0.0184042519	-0.0037941992	0.0
0.0	-0.0068416581	0.0
-0.0092877834	-0.0092209075	0.0
-0.0186539328	-0.0064720605	0.0
-0.0022255247	0.0057767228	-0.0274986912
-0.0089959917	0.0091069905	-0.003792806
-0.0158457198	0.0061370304	-0.02751251
-0.0022982181	-0.0041545277	-0.0124343926
-0.0091342697	-0.0040608928	0.011039632
-0.0159280854	-0.0038451664	-0.0124893037
-0.0023768074	-0.0143816978	-0.0273908666
-0.0092533328	-0.0169364564	-0.0036984277
-0.0161176658	-0.0140742987	-0.027435789
-0.1371715562	-0.116729809	0.0258109772
-0.0089829053	-0.1142455203	0.0801230369
0.1192486827	-0.1164347822	0.0257553868
-0.137010197	-0.0042889996	0.0675368293
-0.0090976877	-0.0040909969	0.1219516714
0.1187949724	-0.0039712132	0.0675092208
-0.1374731829	0.1082923988	0.0258765258
-0.0092226938	0.1059247991	0.0802494866
0.1190235412	0.1086014483	0.0258353171

VECTORS	v 	float 
0.0	0.0	0.0
-0.0002010207	0.0	0.0
-0.0003943587	0.0	0.0
0.0	-0.0002484332	0.0
-0.0001954764	-0.0002522018	0.0
-0.0003968163	-0.0002514387	0.0
0.0	-0.0004984299	0.0
-0.000202404	-0.0005026283	0.0
-0.0003964631	-0.0005044873	0.0
-0.0006054587	-0.0006476449	0.0001079845
-0.0001985259	-0.0006807208	8.36625e-05
0.0002063802	-0.0006488915	0.0001087099
-0.0005925615	-0.0002509481	0.0001081799
-0.0001995299	-0.0002508149	9.55625e-05
0.0001952728	-0.0002519401	0.0001097513
-0.000604705	0.0001461086	0.0001078838
-0.0001971903	0.0001783298	8.4397e-05
0.0002080785	0.0001452846	0.000108476
0.0003988074	0.0003567135	0.0003817959
-0.0002001975	0.0002908316	-1.1787e-06
-0.0007988085	0.0003554136	0.000383683
0.0004034369	-0.0002506311	4.27398e-05
-0.0001992143	-0.0002516209	-0.0003322023
-0.0008022699	-0.0002518761	4.28034e-05
0.0003998089	-0.000858378	0.0003820279
-0.0001993451	-0.0007934767	-1.0401e-06
-0.0007979756	-0.0008594685	0.0003838152

VECTORS	a 	float 
0.0	0.0	0.0
-0.8955443163	0.0	0.0
-1.790385036	0.0	0.0
0.0	-0.7169042796	0.0
-0.8937921349	-0.7159755597	0.0
-1.7881520545	-0.7170854271	0.0
0.0	-1.43304473	0.0
-0.8962107088	-1.4324299264	0.0
-1.7917661429	-1.4333885182	0.0
-0.0020141001	-0.0031815867	3.0799761496
-0.8945374285	-0.0016245429	3.0823068171
-1.7872954484	-0.0029094977	3.0800749877
-0.0007286058	-0.716550145	3.0804655945
-0.8950934425	-0.7166666465	3.0828338499
-1.7892444699	-0.7162759114	3.0805114683
-0.0021670925	-1.4301305798	3.0800935236
-0.8946559738	-1.4315663247	3.0826643475
-1.7873562277	-1.4298622633	3.0801760347
0.0041894677	0.0033097071	6.1589776146
-0.8948803538	0.0046347989	6.1635106326
-1.7939267238	0.0035101587	6.1592874369
0.0068189058	-0.7168892813	6.1613706541
-0.8947979419	-0.7167034302	6.1653353269
-1.7964447855	-0.7166652202	6.161181132
0.0039430535	-1.4370594205	6.1592630734
-0.895080479	-1.4380578313	6.1636411425
-1.7940961624	-1.4368045912	6.1595532339

SCALARS	theta	float 1
LOOKUP_TABLE	default
299.7518497309
299.6362084562
299.7428031612
299.6875795666
299.5666462102
299.6910182371
299.7570679306
299.6345501251
299.7536607119
297.3778106062
297.4130441356
297.3780080329
297.4862429688
297.5200619685
297.4848719668
297.3768128613
297.4160489642
297.377672424
326.1661698389
326.3993715826
326.1666653892
326.4735858588
326.7075755641
326.4744373507
326.1675906408
326.3975471352
326.1668784851

SCALARS	sig_11	float	1
LOOKUP_TABLE	default
-50.7298963647
-28.9893571617
-49.5001639764
-36.7630053716
-16.8961901519
-37.0170539517
-50.1714601567
-31.3940173237
-50.4283824722
45.3031331714
63.9184159647
45.2301865978
60.1883673164
78.9635943878
60.2038048611
44.8441065594
63.6572669978
44.8464723917
-107.4720213746
-89.0380341488
-107.4643535539
-91.5982811056
-73.0930765205
-91.600736098
-107.3902802883
-88.9909515324
-107.3940429162

SCALARS	sig_22	float	1
LOOKUP_TABLE	default
-46.4695504444
-26.5087312024
-45.0590823426
-31.3180864621
-14.5505277735
-30.9061064557
-43.4300091936
-29.4092782074
-43.2070532203
35.5493180281
48.4562742153
35.5074762597
50.8470089739
64.0157298851
50.8699078358
35.2762141348
48.6020626904
35.3096863924
-84.5674836755
-71.6571882931
-84.5724302333
-67.8704323896
-54.9334921514
-67.8712282383
-84.4690933224
-71.7076056506
-84.4899669329

SCALARS	sig_33	float	1
LOOKUP_TABLE	default
-64.4854627853
-15.613918733
-63.6762220298
-32.9341306852
14.2218742442
-33.0048328478
-63.2114606933
-17.0108494308
-63.308939436
71.322137916
120.9285216886
71.2461499994
110.3997818814
160.1460072203
110.3819120889
71.1854786125
120.9973534798
71.1542573049
-255.5728129545
-202.2943129217
-255.6326725633
-208.5859693801
-155.0526198995
-208.5559270975
-255.5789838739
-202.2475297836
-255.5617705003

SCALARS vonMises	float	1
LOOKUP_TABLE	default
40.4509207602
44.1679832085
41.3330189615
31.1701501866
39.9844292688
31.2348125609
43.0153054188
43.7479892186
42.9954178934
170.7182151545
149.2907889202
171.1646034182
144.4445156918
117.1328380794
144.4043780509
171.5021323677
148.4925036021
171.4306981412
197.7601953244
177.9235018555
197.8852846236
186.0012882706
167.5051965045
185.982732982
198.033898018
177.7892852135
197.9897587823
