# vtk DataFile Version 2.0
Results
ASCII
DATASET UNSTRUCTURED_GRID
POINTS         27           float
0.0	0.0	0.0	
50.0	0.0	0.0	
100.0	0.0	0.0	
0.0	40.0	0.0	
50.0	40.0	0.0	
100.0	40.0	0.0	
0.0	80.0	0.0	
50.0	80.0	0.0	
100.0	80.0	0.0	
0.0	0.0	70.0	
50.0	0.0	70.0	
100.0	0.0	70.0	
0.0	40.0	70.0	
50.0	40.0	70.0	
100.0	40.0	70.0	
0.0	80.0	70.0	
50.0	80.0	70.0	
100.0	80.0	70.0	
0.0	0.0	140.0	
50.0	0.0	140.0	
100.0	0.0	140.0	
0.0	40.0	140.0	
50.0	40.0	140.0	
100.0	40.0	140.0	
0.0	80.0	140.0	
50.0	80.0	140.0	
100.0	80.0	140.0	

CELLS	8	72
 8	0	1	4	3	9	10	13	12	
 8	1	2	5	4	10	11	14	13	
 8	4	5	8	7	13	14	17	16	
 8	3	4	7	6	12	13	16	15	
 8	9	10	13	12	18	19	22	21	
 8	10	11	14	13	19	20	23	22	
 8	13	14	17	16	22	23	26	25	
 8	12	13	16	15	21	22	25	24	

CELL_TYPES	8
 12
 12
 12
 12
 12
 12
 12
 12

POINT_DATA	27
VECTORS	u 	float 
0.0	0.0	0.0
0.0022809207	0.0	0.0
0.0046672993	0.0	0.0
0.0	0.0076219358	0.0
0.0021777274	0.0075675258	0.0
0.0042878577	0.0078956783	0.0
0.0	0.0164140103	0.0
0.0020037563	0.0141847477	0.0
0.0037949839	0.0168445497	0.0
0.0210940214	0.0286132396	-0.0293079245
0.0022976532	0.0330871938	-0.0091562281
-0.0165333882	0.0289826426	-0.0293393327
0.0211732044	0.0074992071	-0.0171155121
0.0021630908	0.0076090126	0.0024741715
-0.0168375952	0.0078249021	-0.0171903776
0.0209229653	-0.0138897406	-0.0292042986
0.0020305681	-0.0175958662	-0.0090405698
-0.0168165083	-0.0135682188	-0.0292582772
-0.1208922378	-0.1036024165	-0.0010388683
0.0023304612	-0.098537243	0.05627448
0.1255776102	-0.1032883439	-0.0011064413
-0.1200222054	0.0073635945	0.0444956898
0.0022050651	0.0075641027	0.1015706976
0.1244267491	0.0076943524	0.0444533253
-0.12120295	0.1184590254	-0.0009557152
0.0020777129	0.1135346832	0.056403015
0.1253411203	0.1187798579	-0.0010126422

VECTORS	v 	float 
0.0	0.0	0.0
0.0021299745	0.0	0.0
0.0042623414	0.0	0.0
0.0	0.001731187	0.0
0.0021250671	0.001724917	0.0
0.0042487236	0.0017335254	0.0
0.0	0.0034729748	0.0
0.0021282953	0.0034409111	0.0
0.0042558284	0.0034760706	0.0
-6.23448e-05	1.66587e-05	-0.0079786166
0.0021277329	4.58783e-05	-0.0077420623
0.0043172429	1.94375e-05	-0.0079789859
-6.1472e-05	0.0017269914	-0.0078258658
0.0021276292	0.0017288372	-0.0075900764
0.0043168802	0.0017293717	-0.0078260079
-6.35041e-05	0.0034349758	-0.0079778981
0.0021256731	0.0034141461	-0.0077416331
0.004315019	0.0034374412	-0.0079785319
-0.0013591351	-0.0011537583	-0.0151237988
0.0021284567	-0.0011372718	-0.0146081341
0.0056164163	-0.0011515408	-0.0151247137
-0.0013607832	0.0017268873	-0.0147294356
0.0021271828	0.00172805	-0.0142109303
0.0056150668	0.001729263	-0.0147292106
-0.0013612802	0.0046088016	-0.0151238997
0.0021267138	0.0045921634	-0.0146069039
0.0056147057	0.0046110248	-0.0151246236

VECTORS	a 	float 
0.0	0.0	0.0
0.7037085513	0.0	0.0
1.407069683	0.0	0.0
0.0	0.5635056718	0.0
0.7025567116	0.5623062758	0.0
1.4054066934	0.5635023222	0.0
0.0	1.1264961346	0.0
0.7039721266	1.1249939347	0.0
1.4077273803	1.1264857101	0.0
0.0034033835	0.0037403766	-2.4188816483
0.7030043591	0.0030693847	-2.419660359
1.4027158112	0.0035528706	-2.4189364174
0.0030860839	0.5628884463	-2.4189122786
0.7033534119	0.5630694573	-2.4195008063
1.4035049328	0.5627232756	-2.4188632969
0.003479792	1.122176802	-2.4189399518
0.7031087335	1.1229464755	-2.4198428125
1.4028054016	1.1220374052	-2.4189886439
-0.0055120698	-0.0044422372	-4.8342135204
0.7031994581	-0.0054318142	-4.8356431828
1.4118810221	-0.0045707844	-4.8343315584
-0.0071523187	0.5631551762	-4.8340799392
0.7031391456	0.5629943966	-4.835104103
1.4134746354	0.5630045117	-4.833966392
-0.0053326974	1.1307326761	-4.8343832549
0.7033243129	1.1314498305	-4.8356869289
1.4119759751	1.1305578005	-4.8344979163

SCALARS	theta	float 1
LOOKUP_TABLE	default
302.7249642481
302.4385247095
302.7092728437
302.6064733256
302.3523597427
302.6034441829
302.6985670572
302.469866538
302.7011994064
294.4880253217
294.1617379352
294.4901675815
294.2898114613
293.958894314
294.2899644891
294.4942953455
294.1586828521
294.4939657915
326.0466654447
325.5910827278
326.0467355416
325.7394218187
325.2837759583
325.7393184451
326.0450650671
325.5912740186
326.0450918828

SCALARS	sig_11	float	1
LOOKUP_TABLE	default
-82.8273054264
-59.3018654493
-81.853436955
-68.6555747521
-47.2235439019
-68.5400299549
-82.0085576181
-62.0490719953
-82.5490369135
58.3909120097
86.4977358879
58.3260548821
82.5804617055
110.7222177204
82.5682305578
57.9305511506
86.254381792
57.9500144503
-139.5026914317
-102.7820674754
-139.5037344028
-105.365491902
-68.5655972645
-105.3528268429
-139.3999332791
-102.7424239861
-139.4188698859

SCALARS	sig_22	float	1
LOOKUP_TABLE	default
-72.4490090175
-51.2041385239
-71.0194286158
-57.0386190537
-39.2292397406
-56.3025682482
-69.2669040512
-54.2974201098
-69.0569964658
45.4536786299
65.4510213256
45.4249554689
70.4408509474
90.5869563727
70.4638040159
45.1715932691
65.6063720981
45.2256766984
-112.4008700915
-85.7010930683
-112.4181265938
-76.4641970715
-49.7304506795
-76.4600958641
-112.2885501884
-85.7582484547
-112.327530401

SCALARS	sig_33	float	1
LOOKUP_TABLE	default
-122.1953426466
-75.6131134969
-121.4271084351
-93.7417866535
-49.459935713
-93.5926836466
-120.6270911881
-77.340746375
-120.8729428138
82.1875150141
142.9175824835
82.095857144
133.0340073339
193.677727101
132.9876950132
82.0505497076
142.9994382347
82.0128888579
-315.6614884908
-236.4855436828
-315.7162108947
-241.7037309405
-162.3174203272
-241.6556337161
-315.6256555522
-236.4651049139
-315.6286198438

SCALARS vonMises	float	1
LOOKUP_TABLE	default
107.9165179979
92.5017762033
108.586388364
79.1734645256
52.7909008744
79.2754383337
109.6536868684
91.2843912161
109.4850633037
214.2269625618
177.3694585234
214.5908119074
171.4330678997
122.4116198606
171.463673854
214.9210130117
176.4944550956
214.8111983362
223.4859307945
193.8019037772
223.575084472
204.6694962531
176.1946936166
204.664883207
223.7399670659
193.6698638332
223.6823885728
