# vtk DataFile Version 2.0
Results
ASCII
DATASET UNSTRUCTURED_GRID
POINTS         27           float
0.0	0.0	0.0	
50.0	0.0	0.0	
100.0	0.0	0.0	
0.0	40.0	0.0	
50.0	40.0	0.0	
100.0	40.0	0.0	
0.0	80.0	0.0	
50.0	80.0	0.0	
100.0	80.0	0.0	
0.0	0.0	70.0	
50.0	0.0	70.0	
100.0	0.0	70.0	
0.0	40.0	70.0	
50.0	40.0	70.0	
100.0	40.0	70.0	
0.0	80.0	70.0	
50.0	80.0	70.0	
100.0	80.0	70.0	
0.0	0.0	140.0	
50.0	0.0	140.0	
100.0	0.0	140.0	
0.0	40.0	140.0	
50.0	40.0	140.0	
100.0	40.0	140.0	
0.0	80.0	140.0	
50.0	80.0	140.0	
100.0	80.0	140.0	

CELLS	8	72
 8	0	1	4	3	9	10	13	12	
 8	1	2	5	4	10	11	14	13	
 8	4	5	8	7	13	14	17	16	
 8	3	4	7	6	12	13	16	15	
 8	9	10	13	12	18	19	22	21	
 8	10	11	14	13	19	20	23	22	
 8	13	14	17	16	22	23	26	25	
 8	12	13	16	15	21	22	25	24	

CELL_TYPES	8
 12
 12
 12
 12
 12
 12
 12
 12

POINT_DATA	27
VECTORS	u 	float 
0.0	0.0	0.0
-0.0003248267	0.0	0.0
-0.0003473696	0.0	0.0
0.0	-0.0020268217	0.0
-0.0003304825	-0.0020497127	0.0
-0.0008777165	-0.001924413	0.0
0.0	-0.003449863	0.0
-0.0004245605	-0.0046067616	0.0
-0.0007535029	-0.0033409625	0.0
-0.0249290145	-0.0224020276	0.0072212151
-0.0002952357	-0.0215694983	0.018569726
0.0242667747	-0.0222552109	0.0072280563
-0.0249089582	-0.0020684724	0.0152422059
-0.0003589692	-0.0020359763	0.0266639309
0.02424442	-0.0019453376	0.0152308389
-0.0249753269	0.0181242992	0.0072635306
-0.0003983914	0.0176328129	0.0186012681
0.0241530646	0.0182484177	0.0072505639
-0.0578428421	-0.0492685374	0.0647062272
-0.0003031608	-0.049445893	0.0765428563
0.0572703945	-0.0491529716	0.0646908206
-0.0580301157	-0.0021214037	0.0723541415
-0.0003442278	-0.0020401384	0.0844058612
0.0573168653	-0.0019940379	0.0723535029
-0.0579681	0.0450918608	0.0647218938
-0.0003980437	0.0453024902	0.0765908942
0.0571832193	0.0452163037	0.0647150385

VECTORS	v 	float 
0.0	0.0	0.0
8.24554e-05	0.0	0.0
0.0001675954	0.0	0.0
0.0	5.34458e-05	0.0
9.25814e-05	6.60874e-05	0.0
0.0001827802	5.39209e-05	0.0
0.0	0.0001115992	0.0
8.06511e-05	0.0001285671	0.0
0.000162421	0.0001126426	0.0
8.44918e-05	4.93078e-05	5.6166e-05
8.88614e-05	5.37887e-05	4.4851e-05
9.2373e-05	5.10998e-05	5.65763e-05
8.70366e-05	6.02051e-05	4.66037e-05
8.58038e-05	5.83129e-05	3.31955e-05
8.55203e-05	6.1756e-05	4.5889e-05
8.38898e-05	6.98754e-05	5.67367e-05
8.77376e-05	6.40558e-05	4.63499e-05
9.12057e-05	7.11594e-05	5.71097e-05
0.0001798972	0.0001377553	3.49395e-05
8.7309e-05	0.0001460664	1.86389e-05
-4.97e-06	0.0001391353	3.57475e-05
0.0001954051	5.7583e-05	2.09477e-05
8.7742e-05	5.92208e-05	9.263e-07
-2.03696e-05	5.91592e-05	1.98876e-05
0.0001780573	-2.24143e-05	3.65933e-05
8.60255e-05	-2.79536e-05	1.89479e-05
-5.9634e-06	-2.0623e-05	3.73504e-05

VECTORS	a 	float 
0.0	0.0	0.0
-0.8935384573	0.0	0.0
-1.7826704285	0.0	0.0
0.0	-0.7228061515	0.0
-0.8829334988	-0.7120297902	0.0
-1.7695850208	-0.722596377	0.0
0.0	-1.4390791034	0.0
-0.8964567624	-1.4290136599	0.0
-1.7903430099	-1.438648152	0.0
0.0085395999	-0.0093838613	3.0676015352
-0.8869400176	0.0035050131	3.0868557891
-1.7837720043	-0.0071083748	3.0681698756
0.0168911224	-0.7174413866	3.0767407552
-0.8904362985	-0.7189883623	3.0931800321
-1.7963931053	-0.7154402261	3.076219893
0.0076607125	-1.4272550643	3.0685077945
-0.8882738701	-1.4398951117	3.0887794694
-1.7849767444	-1.4255323526	3.0688956368
0.0041990697	0.0023275561	6.1573772173
-0.8888026914	0.0176417886	6.1944810548
-1.7813554019	0.0039165472	6.1585213124
0.0276047604	-0.72022651	6.1779261538
-0.8883489803	-0.7184149908	6.210284507
-1.8048721011	-0.718380541	6.1767958966
0.0020899945	-1.4423696021	6.1593004589
-0.8902658637	-1.4549866921	6.1951532756
-1.7825105263	-1.4402714462	6.1603380639

SCALARS	theta	float 1
LOOKUP_TABLE	default
299.5589780108
299.6054905237
299.5618419786
299.5812096734
299.6231682462
299.5810845814
299.5624249308
299.6011571679
299.5623033716
305.14543764
305.1677613073
305.1451528804
305.1554970419
305.1786985265
305.1556303663
305.1444857297
305.1680399324
305.1444835407
311.3448006117
311.3517616411
311.3447280693
311.3456328736
311.3526368771
311.3455642865
311.3450193546
311.3517744639
311.3450475878

SCALARS	sig_11	float	1
LOOKUP_TABLE	default
13.926304437
22.778244678
14.7055965923
20.6271446702
28.4232960496
20.2541272969
14.2509507001
21.7202119924
14.3152086921
-6.9404033526
-3.2735325572
-6.9966000554
-4.0465666069
-0.2587236299
-4.0249389578
-7.1585264371
-3.3850568846
-7.1700528061
-14.0464444066
-13.8434790022
-14.0300285425
-14.1455182261
-13.9178732654
-14.1509893169
-14.006777827
-13.8305964823
-14.0010654637

SCALARS	sig_22	float	1
LOOKUP_TABLE	default
9.0046633315
17.2502333805
9.6137387492
16.2544200164
22.972597294
16.2479738481
10.4618338072
15.9192129057
10.5045191587
-5.9107941835
-3.403299393
-5.9569194757
-2.9259408924
-0.2624711077
-2.924572596
-6.0398268169
-3.3262701958
-6.0418323254
-10.1160007176
-9.9543227018
-10.1044765412
-10.3272203613
-10.1581126984
-10.322350083
-10.0672457263
-9.984216664
-10.0680500582

SCALARS	sig_33	float	1
LOOKUP_TABLE	default
22.6904283649
44.4307203959
23.0880296779
38.7409504792
59.7751703848
38.6027609285
23.2995748636
43.817782409
23.3047045445
-9.3898432131
1.1126577308
-9.4356151304
-1.9662321278
8.7012279972
-1.9642978757
-9.4628033835
1.1536863639
-9.4729504781
-40.5866074444
-39.8284898357
-40.6080641598
-41.2359920215
-40.3486113123
-41.2221856353
-40.5948625165
-39.8140126617
-40.5772279859

SCALARS vonMises	float	1
LOOKUP_TABLE	default
58.7843195005
44.1269346692
58.3802241458
47.5596147775
31.1202681014
47.7630903767
58.2766105859
45.0693642749
58.3284797331
39.4976880453
36.0389370066
39.4195917201
37.6057278902
34.9824647201
37.6426396326
39.3978768674
36.1863564329
39.4057443369
41.6616998021
41.7733530003
41.7433440979
41.9134926442
41.9756380622
41.8825485512
41.7978656513
41.7179165564
41.7917407104
