# vtk DataFile Version 2.0
Results
ASCII
DATASET UNSTRUCTURED_GRID
POINTS         27           float
0.0	0.0	0.0	
50.0	0.0	0.0	
100.0	0.0	0.0	
0.0	40.0	0.0	
50.0	40.0	0.0	
100.0	40.0	0.0	
0.0	80.0	0.0	
50.0	80.0	0.0	
100.0	80.0	0.0	
0.0	0.0	70.0	
50.0	0.0	70.0	
100.0	0.0	70.0	
0.0	40.0	70.0	
50.0	40.0	70.0	
100.0	40.0	70.0	
0.0	80.0	70.0	
50.0	80.0	70.0	
100.0	80.0	70.0	
0.0	0.0	140.0	
50.0	0.0	140.0	
100.0	0.0	140.0	
0.0	40.0	140.0	
50.0	40.0	140.0	
100.0	40.0	140.0	
0.0	80.0	140.0	
50.0	80.0	140.0	
100.0	80.0	140.0	

CELLS	8	72
 8	0	1	4	3	9	10	13	12	
 8	1	2	5	4	10	11	14	13	
 8	4	5	8	7	13	14	17	16	
 8	3	4	7	6	12	13	16	15	
 8	9	10	13	12	18	19	22	21	
 8	10	11	14	13	19	20	23	22	
 8	13	14	17	16	22	23	26	25	
 8	12	13	16	15	21	22	25	24	

CELL_TYPES	8
 12
 12
 12
 12
 12
 12
 12
 12

POINT_DATA	27
VECTORS	u 	float 
0.0	0.0	0.0
-0.002258612	0.0	0.0
-0.0041927903	0.0	0.0
0.0	-0.0036684225	0.0
-0.0022640099	-0.0036925293	0.0
-0.0047606966	-0.0035583729	0.0
0.0	-0.0066871921	0.0
-0.0023662437	-0.0079306548	0.0
-0.0046299327	-0.0065698979	0.0
-0.0265325218	-0.0237943564	0.0049182517
-0.0022263263	-0.0228965674	0.0171273191
0.0220027307	-0.0236362169	0.0049255267
-0.026508862	-0.003713133	0.013538253
-0.0022951049	-0.0036781198	0.0258249958
0.0219759823	-0.0035804962	0.0135259762
-0.0265826652	0.016216656	0.0049640555
-0.0023374097	0.0156859601	0.0171617338
0.0218805036	0.0163503207	0.0049501173
-0.0623380515	-0.0530885057	0.0637729261
-0.0022348434	-0.0532752894	0.0766896892
0.0579047315	-0.0529638645	0.0637563755
-0.0625327119	-0.0037705454	0.0721532996
-0.0022791191	-0.0036829633	0.0853004136
0.0579478527	-0.00363323	0.0721524248
-0.0624731779	0.0456185736	0.0637903438
-0.0023372206	0.0458414553	0.0767418132
0.0578107057	0.0457527183	0.0637829813

VECTORS	v 	float 
0.0	0.0	0.0
7.16312e-05	0.0	0.0
0.0001466114	0.0	0.0
0.0	5.37245e-05	0.0
7.93222e-05	6.21273e-05	0.0
0.0001556893	5.39165e-05	0.0
0.0	0.0001117829	0.0
6.99045e-05	0.0001208768	0.0
0.0001416485	0.000112433	0.0
6.93327e-05	4.27914e-05	7.51392e-05
7.63973e-05	5.07523e-05	6.09877e-05
8.24585e-05	4.42924e-05	7.55007e-05
7.49122e-05	5.79927e-05	6.23626e-05
7.39132e-05	5.66033e-05	4.63209e-05
7.40222e-05	5.92391e-05	6.18497e-05
6.89096e-05	7.19581e-05	7.5786e-05
7.55363e-05	6.36375e-05	6.24467e-05
8.1679e-05	7.28847e-05	7.60413e-05
0.0001580292	0.0001388958	3.54766e-05
7.49906e-05	0.0001481935	1.97622e-05
-7.6312e-06	0.0001396297	3.61901e-05
0.0001743449	5.59006e-05	1.95555e-05
7.5551e-05	5.71468e-05	7.003e-07
-2.38115e-05	5.68606e-05	1.87287e-05
0.000156761	-2.68562e-05	3.70449e-05
7.43223e-05	-3.43069e-05	2.01463e-05
-8.0091e-06	-2.5641e-05	3.76625e-05

VECTORS	a 	float 
0.0	0.0	0.0
-0.8942010186	0.0	0.0
-1.7844556469	0.0	0.0
0.0	-0.7223260677	0.0
-0.8844728378	-0.7124313854	0.0
-1.7722753583	-0.7221529575	0.0
0.0	-1.4387765181	0.0
-0.896871168	-1.4293054556	0.0
-1.7914228832	-1.4384170579	0.0
0.0067255399	-0.0088158824	3.0693862019
-0.8881545326	0.0029163344	3.0864316766
-1.7842521107	-0.00675578	3.0699142465
0.0143987102	-0.7173912233	3.077320503
-0.8913494719	-0.7188124798	3.0917178877
-1.7958640957	-0.71557523	3.0768474088
0.0059176939	-1.4275488982	3.0702153414
-0.8893596246	-1.4391186862	3.0881697648
-1.7853348302	-1.4259816548	3.0705765084
0.0039058966	0.0023005208	6.1575707455
-0.8898605515	0.0165954564	6.1916372388
-1.7832290928	0.0037479899	6.1586294543
0.0255168751	-0.7199302823	6.1765974964
-0.8894435698	-0.7182802334	6.2062127326
-1.804910086	-0.7182521136	6.1755617992
0.0019956696	-1.44179291	6.1593195487
-0.8911940747	-1.4536140563	6.1922411331
-1.7842867493	-1.4398880322	6.1602774244

SCALARS	theta	float 1
LOOKUP_TABLE	default
299.1574424509
299.2061120553
299.1603963565
299.180390465
299.2243330587
299.1803242504
299.1610765522
299.2016221141
299.1609345865
305.0854437157
305.1114758724
305.0851414329
305.0971986797
305.1241285957
305.0973185142
305.0844732007
305.1117906889
305.0844789672
311.8472695996
311.8598651477
311.8471813653
311.8507437881
311.8633986984
311.8506748315
311.8475054984
311.859894669
311.8475154882

SCALARS	sig_11	float	1
LOOKUP_TABLE	default
14.5311295722
24.0583745755
15.3668596058
21.7345239714
30.1288450483
21.3358661908
14.8794217262
22.9212748313
14.9464287875
-7.0909849442
-3.1205394674
-7.1510007578
-3.9444691197
0.1553253288
-3.9213397395
-7.3253820913
-3.2407586147
-7.3376521336
-15.5215155646
-15.261756382
-15.5040645496
-15.5627244234
-15.2760674398
-15.5684233671
-15.4791552818
-15.2477741521
-15.473098749

SCALARS	sig_22	float	1
LOOKUP_TABLE	default
9.3180585451
18.190739161
9.9725759772
17.1148864337
24.3468484604
17.1097388357
10.8832829023
16.7602637699
10.9287231335
-6.0607973033
-3.3431068384
-6.1100008486
-2.80947219
0.0752891943
-2.8079067759
-6.1994874182
-3.2607804461
-6.2014886847
-11.2233399843
-11.0185373513
-11.211229714
-11.3717364201
-11.1585586588
-11.3664346125
-11.1711843836
-11.0505845112
-11.1722392911

SCALARS	sig_33	float	1
LOOKUP_TABLE	default
23.7795918815
47.1705129116
24.2064696419
41.0329149748
63.6642926678
40.8855846774
24.4337483606
46.511468014
24.4379221978
-9.5485000429
1.8779752988
-9.5974025822
-1.435645695
10.1670229826
-1.43355031
-9.6269527134
1.9215980035
-9.6379548531
-44.6313717561
-43.5674721461
-44.6546597682
-45.0665828723
-43.8632058987
-45.0515382569
-44.6404573227
-43.5516556241
-44.6217393711

SCALARS vonMises	float	1
LOOKUP_TABLE	default
62.3505788796
46.8076433543
61.9166615046
50.5138155151
33.1944803228
50.7332856881
61.8070555653
47.8224753853
61.8619098322
42.536867502
38.834189241
42.4545267465
40.5099039308
37.7521719988
40.5488335164
42.4318568656
38.9862498711
42.439717818
45.4492028601
45.4694415867
45.536616156
45.6551184984
45.6230449843
45.6222494145
45.5954299512
45.4096701006
45.5887176905
