# vtk DataFile Version 2.0
Results
ASCII
DATASET UNSTRUCTURED_GRID
POINTS         27           float
0.0	0.0	0.0	
50.0	0.0	0.0	
100.0	0.0	0.0	
0.0	40.0	0.0	
50.0	40.0	0.0	
100.0	40.0	0.0	
0.0	80.0	0.0	
50.0	80.0	0.0	
100.0	80.0	0.0	
0.0	0.0	70.0	
50.0	0.0	70.0	
100.0	0.0	70.0	
0.0	40.0	70.0	
50.0	40.0	70.0	
100.0	40.0	70.0	
0.0	80.0	70.0	
50.0	80.0	70.0	
100.0	80.0	70.0	
0.0	0.0	140.0	
50.0	0.0	140.0	
100.0	0.0	140.0	
0.0	40.0	140.0	
50.0	40.0	140.0	
100.0	40.0	140.0	
0.0	80.0	140.0	
50.0	80.0	140.0	
100.0	80.0	140.0	

CELLS	8	72
 8	0	1	4	3	9	10	13	12	
 8	1	2	5	4	10	11	14	13	
 8	4	5	8	7	13	14	17	16	
 8	3	4	7	6	12	13	16	15	
 8	9	10	13	12	18	19	22	21	
 8	10	11	14	13	19	20	23	22	
 8	13	14	17	16	22	23	26	25	
 8	12	13	16	15	21	22	25	24	

CELL_TYPES	8
 12
 12
 12
 12
 12
 12
 12
 12

POINT_DATA	27
VECTORS	u 	float 
0.0	0.0	0.0
0.0046860658	0.0	0.0
0.0094026835	0.0	0.0
0.0	0.0082588012	0.0
0.0046146683	0.0082112415	0.0
0.0092075842	0.0084445096	0.0
0.0	0.0172771266	0.0
0.0044925782	0.0158124896	0.0
0.0088145119	0.017581706	0.0
0.0199709144	0.0247801143	-0.0199694362
0.0046956229	0.0281012005	-0.0075484588
-0.0105931359	0.0250315674	-0.019995237
0.0200803409	0.0081670391	-0.0126218762
0.0046044265	0.0082453142	-0.0006590752
-0.0108712861	0.0083913119	-0.0126776791
0.019850872	-0.0086260062	-0.0199013334
0.0045130996	-0.0114312017	-0.0074624832
-0.0107872449	-0.0084052729	-0.0199398775
-0.0755690678	-0.0650154967	-0.0078114841
0.0047220452	-0.0609080544	0.0306843145
0.0850254052	-0.064798667	-0.0078597359
-0.0747757729	0.0080747103	0.0231299076
0.0046353388	0.0082105152	0.0613921653
0.0840452189	0.0083009488	0.0230972563
-0.0757814353	0.0812492011	-0.0077494651
0.0045481965	0.0772430925	0.0307716884
0.0848634939	0.0814685103	-0.0077916172

VECTORS	v 	float 
0.0	0.0	0.0
0.0022125342	0.0	0.0
0.004424052	0.0	0.0
0.0	0.00182857	0.0
0.002200897	0.0018201629	0.0
0.0044030702	0.0018318439	0.0
0.0	0.0036673962	0.0
0.0022117103	0.0036314394	0.0
0.0044193677	0.003672377	0.0
0.000166791	0.0002592652	-0.0080133496
0.0022063721	0.0002991978	-0.0077707361
0.0042462806	0.0002620647	-0.0080139802
0.0001637396	0.0018233216	-0.0078598428
0.0022078909	0.0018256609	-0.0076206643
0.0042513654	0.0018256703	-0.0078604177
0.0001655711	0.0033851041	-0.0080125051
0.0022041364	0.0033545423	-0.0077709917
0.0042437502	0.0033875349	-0.0080134107
-0.0014972756	-0.0012774255	-0.0152515261
0.0022085807	-0.0012408723	-0.0146011132
0.0059145732	-0.0012746005	-0.0152531448
-0.0015057796	0.0018235361	-0.0147285465
0.0022064895	0.0018247649	-0.0140764216
0.0059189416	0.001826461	-0.0147281961
-0.0014998001	0.0049258663	-0.0152517799
0.0022064053	0.0048890499	-0.0146001609
0.0059123773	0.0049285397	-0.0152532505

VECTORS	a 	float 
0.0	0.0	0.0
0.4167322588	0.0	0.0
0.8333376713	0.0	0.0
0.0	0.3337422789	0.0
0.4164585138	0.3335198407	0.0
0.8330217255	0.3337607978	0.0
0.0	0.6673559239	0.0
0.416815198	0.6671308726	0.0
0.8335287296	0.6673895119	0.0
0.0023200659	0.0026012973	-1.4331080355
0.4165697287	0.0024637715	-1.4331946825
0.8308586127	0.002557959	-1.4331237822
0.0021333774	0.333637394	-1.4330663509
0.4166556483	0.3336719802	-1.4331663499
0.8311389612	0.3335980031	-1.4330652422
0.0023377171	0.6647097458	-1.4331229871
0.4165900055	0.6648510703	-1.4332505049
0.8308719922	0.6646760424	-1.4331367909
-0.0043235548	-0.003639489	-2.864365379
0.4166214087	-0.0036987481	-2.8636887845
0.8375577431	-0.0036668787	-2.8644080673
-0.0047488626	0.3336993882	-2.863447228
0.416605808	0.3336657439	-2.8626996539
0.8379727323	0.3336657069	-2.8634173409
-0.0042811744	0.6710347725	-2.8644133599
0.4166503772	0.6710351	-2.8637028916
0.8375788964	0.670993496	-2.8644538698

SCALARS	theta	float 1
LOOKUP_TABLE	default
302.6147289382
302.3691637028
302.6019077683
302.5187298971
302.3094265999
302.5146353514
302.5843598665
302.4030689049
302.5883988376
295.6761538717
295.3340161304
295.6783957699
295.4288210085
295.0819089278
295.4294566943
295.6832676959
295.3294697346
295.6825836178
317.2677395591
316.7318024097
317.2675214696
316.8416100336
316.3054825148
316.8411883153
317.2654688856
316.7327963742
317.2657531247

SCALARS	sig_11	float	1
LOOKUP_TABLE	default
-63.4169065861
-47.0139526289
-62.8092601326
-53.7063487266
-38.828807374
-53.5376738044
-62.7461333586
-49.0013739873
-63.1870344051
41.3317692121
62.9804530863
41.2873499467
60.5247929737
82.1741045723
60.5090735317
41.0181326581
62.8220664283
41.035644839
-101.6937549479
-71.7707645377
-101.6955703969
-73.1449025787
-43.1521707298
-73.1313953188
-101.6165401831
-71.7468735905
-101.6337998915

SCALARS	sig_22	float	1
LOOKUP_TABLE	default
-54.9710813989
-40.2514432456
-53.9941052358
-44.4108982296
-32.1131815369
-43.8291098162
-52.7450738443
-42.4249850289
-52.6160590292
32.0128315742
47.6257059418
31.9940955826
51.7912789483
67.483670538
51.8058376322
31.8177523501
47.7345215204
31.8594857532
-82.6239455559
-60.5447185011
-82.6381701426
-52.7037447861
-30.5858291117
-52.6984904381
-82.5426051344
-60.5868272406
-82.5744285046

SCALARS	sig_33	float	1
LOOKUP_TABLE	default
-97.1359474847
-66.5481687606
-96.618344278
-78.7967587126
-49.9529508541
-78.6364496666
-95.9523554628
-67.844086103
-96.1658967139
55.3734986354
99.0015894091
55.3041637147
92.8004678936
136.3380787445
92.7609057706
55.278809761
99.0617865826
55.2515410109
-226.3325858399
-166.4849100083
-226.3668720982
-169.3630726576
-109.3439566791
-169.3240650731
-226.2941938946
-166.4807265103
-226.3024464439

SCALARS vonMises	float	1
LOOKUP_TABLE	default
89.3420584156
75.0087274593
89.760282737
66.2462231712
41.5633944092
66.336418253
90.4455975263
74.1397316674
90.321207489
153.0797351679
124.8929272832
153.309112322
120.6899641181
82.3128067021
120.7244491117
153.5332498996
124.2936021675
153.455673624
155.0141104898
132.6553945685
155.0649017932
140.5103109724
118.7712980217
140.5091283844
155.1812420973
132.566655896
155.1394535993
