# vtk DataFile Version 2.0
Results
ASCII
DATASET UNSTRUCTURED_GRID
POINTS         27           float
0.0	0.0	0.0	
50.0	0.0	0.0	
100.0	0.0	0.0	
0.0	40.0	0.0	
50.0	40.0	0.0	
100.0	40.0	0.0	
0.0	80.0	0.0	
50.0	80.0	0.0	
100.0	80.0	0.0	
0.0	0.0	70.0	
50.0	0.0	70.0	
100.0	0.0	70.0	
0.0	40.0	70.0	
50.0	40.0	70.0	
100.0	40.0	70.0	
0.0	80.0	70.0	
50.0	80.0	70.0	
100.0	80.0	70.0	
0.0	0.0	140.0	
50.0	0.0	140.0	
100.0	0.0	140.0	
0.0	40.0	140.0	
50.0	40.0	140.0	
100.0	40.0	140.0	
0.0	80.0	140.0	
50.0	80.0	140.0	
100.0	80.0	140.0	

CELLS	8	72
 8	0	1	4	3	9	10	13	12	
 8	1	2	5	4	10	11	14	13	
 8	4	5	8	7	13	14	17	16	
 8	3	4	7	6	12	13	16	15	
 8	9	10	13	12	18	19	22	21	
 8	10	11	14	13	19	20	23	22	
 8	13	14	17	16	22	23	26	25	
 8	12	13	16	15	21	22	25	24	

CELL_TYPES	8
 12
 12
 12
 12
 12
 12
 12
 12

POINT_DATA	27
VECTORS	u 	float 
0.0	0.0	0.0
-0.0143653267	0.0	0.0
-0.0283132561	0.0	0.0
0.0	-0.0111904851	0.0
-0.0144032195	-0.0112211002	0.0
-0.0290958525	-0.0109775398	0.0
0.0	-0.0212431731	0.0
-0.0145739561	-0.023390465	0.0
-0.0290885985	-0.0209757928	0.0
-0.0211388433	-0.0145908393	-0.0219854642
-0.01432101	-0.0124730735	-0.0001479768
-0.0076082384	-0.0142914206	-0.0219848831
-0.0210736146	-0.0112730525	-0.0074485733
-0.0144431604	-0.0112004734	0.0143771806
-0.0077437402	-0.0110200031	-0.0074825717
-0.0212512222	-0.0082182957	-0.0218950161
-0.0145325763	-0.0096696676	-7.37419e-05
-0.0078338588	-0.0079658571	-0.0219263771
-0.1210896287	-0.1026816843	0.0397904335
-0.0143239924	-0.1020770423	0.0792013908
0.0924938056	-0.1024425042	0.0397514706
-0.1210315987	-0.0113851363	0.0687399291
-0.0144132184	-0.0112207129	0.1084225234
0.0921727641	-0.0111240364	0.0687271442
-0.1213420541	0.080035598	0.0398384691
-0.0145196889	0.0795148941	0.0793065976
0.0923119323	0.0802902219	0.0398139416

VECTORS	v 	float 
0.0	0.0	0.0
-5.97019e-05	0.0	0.0
-0.0001179186	0.0	0.0
0.0	-9.28098e-05	0.0
-5.45094e-05	-8.46592e-05	0.0
-0.000110313	-9.30612e-05	0.0
0.0	-0.0001861341	0.0
-5.9583e-05	-0.0001688839	0.0
-0.0001179507	-0.0001866097	0.0
-0.0002872202	-0.0003126275	0.0001259103
-5.65734e-05	-0.0003241341	8.54502e-05
0.0001737432	-0.0003127404	0.0001264036
-0.0002837769	-8.79351e-05	0.0001097812
-5.77035e-05	-8.95731e-05	6.80971e-05
0.0001688492	-8.80919e-05	0.0001094605
-0.0002870022	0.0001367942	0.0001259881
-5.64282e-05	0.0001449112	8.55089e-05
0.0001738578	0.0001365348	0.0001263935
0.0003415016	0.0002897509	0.0002466723
-5.74681e-05	0.0002809816	4.2895e-06
-0.0004563017	0.0002894746	0.0002471513
0.0003527442	-8.89391e-05	4.01963e-05
-5.68297e-05	-8.85341e-05	-0.000204748
-0.0004666702	-8.9182e-05	3.98928e-05
0.0003416243	-0.0004677812	0.0002470909
-5.72446e-05	-0.0004579216	3.9561e-06
-0.0004559932	-0.0004679439	0.0002475128

VECTORS	a 	float 
0.0	0.0	0.0
-0.8965616568	0.0	0.0
-1.7924115922	0.0	0.0
0.0	-0.7174926382	0.0
-0.8936053781	-0.7145975477	0.0
-1.7878014289	-0.7175291133	0.0
0.0	-1.4337380117	0.0
-0.8973532078	-1.4300663885	0.0
-1.7942162325	-1.433804873	0.0
-0.0028250547	-0.0028344655	3.0796178772
-0.8947735172	-5.78102e-05	3.0827061038
-1.786970074	-0.0023547455	3.0797860615
-0.0011077383	-0.716028712	3.0803193829
-0.8956809836	-0.716452015	3.0825730667
-1.7900063367	-0.7155844501	3.0802126411
-0.0030624433	-1.4295623113	3.0798143274
-0.8950344658	-1.4325751254	3.0831498152
-1.7871813881	-1.4291562336	3.0799471362
0.004013758	0.0027675179	6.1568622573
-0.89528959	0.0074835564	6.168045874
-1.7945514347	0.0031130536	6.1572179381
0.0100097939	-0.716690739	6.1636950364
-0.8951417346	-0.7162825438	6.1733584081
-1.8003559344	-0.7163034188	6.1633862075
0.00359689	-1.4360891456	6.1572962177
-0.8956076951	-1.4401103853	6.168186604
-1.7948143618	-1.4356572302	6.1576229461

SCALARS	theta	float 1
LOOKUP_TABLE	default
297.6657079898
297.6485247937
297.6632998293
297.6424990128
297.6208300341
297.6456180105
297.6713511947
297.644097185
297.669410836
300.7809332179
300.9199945374
300.7804278662
300.8882966555
301.0273625357
300.8873526784
300.7803473021
300.9216849084
300.7806677605
321.3408854856
321.677623858
321.3412749723
321.5938270426
321.9311664052
321.5942464723
321.3413937546
321.6771809092
321.3411186293

SCALARS	sig_11	float	1
LOOKUP_TABLE	default
-15.7883053597
2.2943157489
-14.4909895643
-3.1163772302
13.1216347977
-3.6048999366
-15.2401128128
0.2264482316
-15.2821557882
20.5723483224
31.5815137181
20.4910313212
29.7580958192
40.9575130182
29.7881702401
20.157126675
31.3607081691
20.1481092343
-66.7600145814
-60.0192708395
-66.7428799436
-60.2623672331
-53.4657523791
-60.2693463299
-66.6830708438
-59.9878403273
-66.6796825746

SCALARS	sig_22	float	1
LOOKUP_TABLE	default
-17.5090180141
-0.7127080778
-16.2983419972
-3.7677556214
10.151344644
-3.6182446188
-14.7867763585
-3.2596943388
-14.6421212747
15.7603096316
23.4477798005
15.7022688838
25.3412488421
33.2958867798
25.3544166329
15.5125691792
23.5839251241
15.5266800635
-51.8853661112
-47.0728766603
-51.8785087735
-44.8968508072
-40.0620402282
-44.8931531103
-51.7942469582
-47.1251119285
-51.8047936994

SCALARS	sig_33	float	1
LOOKUP_TABLE	default
-16.1723737818
26.8239740097
-15.4237701607
13.4957942361
55.0570761225
13.3100567167
-15.0344451711
25.6247138454
-15.0673284256
32.6132596613
66.1981589579
32.5437607984
58.7850297295
92.5995377777
58.7829444923
32.4781609095
66.2667668653
32.4570006488
-169.2650565297
-142.5301977542
-169.3144144387
-145.9110279488
-118.9327755669
-145.887018823
-169.2718132496
-142.4968816447
-169.2490564136

SCALARS vonMises	float	1
LOOKUP_TABLE	default
33.4806925834
28.9100509267
33.0253017568
34.1739979003
37.6947749791
34.4600708501
33.5246169369
30.8714473487
33.72782267
104.0511480842
97.8701427072
104.3950666643
96.3465129869
87.0921371008
96.295430406
104.5989603146
97.4310256409
104.586555779
140.1563786556
130.3768292071
140.2902013397
134.2805450332
125.0422251295
134.2459050697
140.4044621694
130.2623117861
140.3799744572
