# vtk DataFile Version 2.0
Results
ASCII
DATASET UNSTRUCTURED_GRID
POINTS         27           float
0.0	0.0	0.0	
50.0	0.0	0.0	
100.0	0.0	0.0	
0.0	40.0	0.0	
50.0	40.0	0.0	
100.0	40.0	0.0	
0.0	80.0	0.0	
50.0	80.0	0.0	
100.0	80.0	0.0	
0.0	0.0	70.0	
50.0	0.0	70.0	
100.0	0.0	70.0	
0.0	40.0	70.0	
50.0	40.0	70.0	
100.0	40.0	70.0	
0.0	80.0	70.0	
50.0	80.0	70.0	
100.0	80.0	70.0	
0.0	0.0	140.0	
50.0	0.0	140.0	
100.0	0.0	140.0	
0.0	40.0	140.0	
50.0	40.0	140.0	
100.0	40.0	140.0	
0.0	80.0	140.0	
50.0	80.0	140.0	
100.0	80.0	140.0	

CELLS	8	72
 8	0	1	4	3	9	10	13	12	
 8	1	2	5	4	10	11	14	13	
 8	4	5	8	7	13	14	17	16	
 8	3	4	7	6	12	13	16	15	
 8	9	10	13	12	18	19	22	21	
 8	10	11	14	13	19	20	23	22	
 8	13	14	17	16	22	23	26	25	
 8	12	13	16	15	21	22	25	24	

CELL_TYPES	8
 12
 12
 12
 12
 12
 12
 12
 12

POINT_DATA	27
VECTORS	u 	float 
0.0	0.0	0.0
-0.0101652462	0.0	0.0
-0.0199191553	0.0	0.0
0.0	-0.0101474212	0.0
-0.010173409	-0.0101759455	0.0
-0.0206412917	-0.010002079	0.0
0.0	-0.0194445695	0.0
-0.010307586	-0.0210645081	0.0
-0.0204904911	-0.0192853174	0.0
-0.0317780881	-0.0279482528	-0.0055524292
-0.0101232619	-0.0267449541	0.010521188
0.0114329784	-0.0277396194	-0.0055440316
-0.0317268115	-0.0102055223	0.0056962728
-0.0102136074	-0.0101592661	0.0218579046
0.0113718971	-0.0100306381	0.005678969
-0.0318461391	0.0073393831	-0.0054905177
-0.0102698289	0.0066178248	0.0105687301
0.0112730523	0.007515275	-0.0055091399
-0.0833344045	-0.0708683838	0.0584029066
-0.01013364	-0.0710642542	0.0774282751
0.0631137882	-0.0707040291	0.0583801737
-0.0835132031	-0.0102831451	0.0711344252
-0.0101921749	-0.0101675159	0.0904493691
0.0630950603	-0.010102303	0.0711320993
-0.0835123687	0.0503953444	0.0584292407
-0.0102684373	0.050640094	0.0774992165
0.0629901054	0.0505718013	0.0584183265

VECTORS	v 	float 
0.0	0.0	0.0
7.74757e-05	0.0	0.0
0.0001581485	0.0	0.0
0.0	5.1307e-05	0.0
8.28668e-05	5.52869e-05	0.0
0.0001629487	5.08673e-05	0.0
0.0	0.0001054285	0.0
7.56055e-05	0.0001086042	0.0
0.0001537121	0.0001048361	0.0
4.12754e-05	7.577e-06	9.18836e-05
8.07149e-05	1.52605e-05	7.21966e-05
0.0001191702	8.6673e-06	9.22115e-05
4.99568e-05	5.30255e-05	7.72852e-05
7.89094e-05	5.24901e-05	5.68259e-05
0.0001088834	5.40332e-05	7.72109e-05
4.08613e-05	9.76559e-05	9.23112e-05
8.01555e-05	9.04027e-05	7.35717e-05
0.0001187406	9.84873e-05	9.25652e-05
0.0002290029	0.0001910202	6.80762e-05
7.97236e-05	0.0001992836	1.53465e-05
-6.92672e-05	0.0001918577	6.89889e-05
0.0002448345	5.16266e-05	2.48367e-05
7.99409e-05	5.24127e-05	-3.05802e-05
-8.53492e-05	5.26167e-05	2.41632e-05
0.0002277946	-8.76739e-05	6.92752e-05
7.8872e-05	-9.4621e-05	1.57828e-05
-6.99324e-05	-8.64806e-05	7.00892e-05

VECTORS	a 	float 
0.0	0.0	0.0
-0.8950127793	0.0	0.0
-1.7878284978	0.0	0.0
0.0	-0.7200844819	0.0
-0.8882711467	-0.7128845884	0.0
-1.7784004258	-0.7199604851	0.0
0.0	-1.4365938684	0.0
-0.8967207233	-1.4284442824	0.0
-1.7921804123	-1.436345698	0.0
0.00243235	-0.0054494025	3.0745101191
-0.890843131	0.0016464375	3.0838901306
-1.7848191163	-0.0041639079	3.0748799866
0.0070077452	-0.7164058341	3.078445784
-0.8929883172	-0.7174743939	3.0857543286
-1.7922684588	-0.7152664351	3.0781010494
0.0019059227	-1.4283241332	3.0750405843
-0.8915924422	-1.4357410781	3.0849536939
-1.785493026	-1.4273321739	3.0753039008
0.0055962331	0.0029800459	6.1581195693
-0.892016388	0.0132968625	6.1808833605
-1.7894180629	0.0038624031	6.1588284563
0.0202753086	-0.7180934804	6.1713057226
-0.8916875699	-0.7170105866	6.1907223882
-1.803928941	-0.717074882	6.170604478
0.0044542342	-1.4389566056	6.1592378134
-0.8928205605	-1.4475760882	6.181226031
-1.7900560917	-1.4378045133	6.1598770337

SCALARS	theta	float 1
LOOKUP_TABLE	default
297.6016159354
297.6530608579
297.6046058726
297.6232981222
297.6695058799
297.6235160353
297.6059029583
297.6481944956
297.6058829683
304.5023392568
304.557873913
304.5018949744
304.528364892
304.5849013925
304.5283976457
304.5013893041
304.5584795313
304.5013786693
314.4351384668
314.5074705117
314.4350736269
314.4692600905
314.5416498404
314.4691699641
314.4354857608
314.5075020263
314.4354458471

SCALARS	sig_11	float	1
LOOKUP_TABLE	default
14.1159682288
26.7510750619
15.201087471
23.5894797885
34.7421360224
23.0807885576
14.5694329837
25.2458002131
14.6448874905
-5.217922894
0.3049400777
-5.2940952649
-0.694435291
4.9951451281
-0.664403711
-5.5258432512
0.1458914164
-5.5411449052
-24.9606346433
-24.144246029
-24.9386240331
-24.287432825
-23.4341031522
-24.2946302866
-24.9046964635
-24.1251084933
-24.8969058146

SCALARS	sig_22	float	1
LOOKUP_TABLE	default
8.1569035813
19.9201488704
9.0214123209
18.4245089671
28.0298227011
18.4265781763
10.2087718906
18.0356535876
10.2725628115
-4.7051924386
-0.8956767551
-4.7669128291
0.0142003935
4.040840276
0.0174473971
-4.8882290315
-0.7895818804
-4.8896846556
-18.5235975563
-17.8918143027
-18.5086915425
-17.8658838218
-17.2212626911
-17.8594847647
-18.4555443202
-17.9337144969
-18.4572248612

SCALARS	sig_33	float	1
LOOKUP_TABLE	default
24.2724318796
55.1761997561
24.8358506537
46.8822182523
76.7705539583
46.6921178131
25.1332459663
54.3011330312
25.133731106
-6.4859220754
10.0058780223
-6.5475556863
5.600175988
22.3156093165
5.6031026883
-6.5888430513
10.0614147445
-6.603671104
-69.5076000835
-65.3317481289
-69.5382017773
-67.1803673527
-62.8204439281
-67.1611642778
-69.5181728721
-65.3107869943
-69.4941753358

SCALARS vonMises	float	1
LOOKUP_TABLE	default
72.2310805584
54.3315649433
71.6753409049
59.3258603607
40.6277101535
59.6070796438
71.5536910433
55.6764719939
71.630867337
56.7642131577
52.3440719661
56.6816546842
54.2869642941
51.2875863337
54.323532517
56.6585002527
52.4629580783
56.6679507779
66.8724680983
65.8357671081
66.9855331519
66.4236263515
65.3472636009
66.3825249112
67.0634290395
65.7557710953
67.0534836526
