# vtk DataFile Version 2.0
Results
ASCII
DATASET UNSTRUCTURED_GRID
POINTS         27           float
0.0	0.0	0.0	
50.0	0.0	0.0	
100.0	0.0	0.0	
0.0	40.0	0.0	
50.0	40.0	0.0	
100.0	40.0	0.0	
0.0	80.0	0.0	
50.0	80.0	0.0	
100.0	80.0	0.0	
0.0	0.0	70.0	
50.0	0.0	70.0	
100.0	0.0	70.0	
0.0	40.0	70.0	
50.0	40.0	70.0	
100.0	40.0	70.0	
0.0	80.0	70.0	
50.0	80.0	70.0	
100.0	80.0	70.0	
0.0	0.0	140.0	
50.0	0.0	140.0	
100.0	0.0	140.0	
0.0	40.0	140.0	
50.0	40.0	140.0	
100.0	40.0	140.0	
0.0	80.0	140.0	
50.0	80.0	140.0	
100.0	80.0	140.0	

CELLS	8	72
 8	0	1	4	3	9	10	13	12	
 8	1	2	5	4	10	11	14	13	
 8	4	5	8	7	13	14	17	16	
 8	3	4	7	6	12	13	16	15	
 8	9	10	13	12	18	19	22	21	
 8	10	11	14	13	19	20	23	22	
 8	13	14	17	16	22	23	26	25	
 8	12	13	16	15	21	22	25	24	

CELL_TYPES	8
 12
 12
 12
 12
 12
 12
 12
 12

POINT_DATA	27
VECTORS	u 	float 
0.0	0.0	0.0
-0.0127467195	0.0	0.0
-0.0250561819	0.0	0.0
0.0	-0.0120445033	0.0
-0.0127589322	-0.0120762877	0.0
-0.0258300537	-0.0118841598	0.0
0.0	-0.0231596686	0.0
-0.0129041902	-0.0249305913	0.0
-0.0256814336	-0.0229804256	0.0
-0.0322621477	-0.0278700402	-0.0099648955
-0.012702389	-0.0265209562	0.007702228
0.0067519297	-0.0276400547	-0.0099567571
-0.0321922428	-0.0121094565	0.0023132272
-0.0128011182	-0.0120576491	0.0200652085
0.0066664107	-0.0119165753	0.0022934139
-0.0323387909	0.0034351471	-0.0098960826
-0.0128640002	0.0026152612	0.0077557892
0.0065764183	0.0036288882	-0.0099169467
-0.0926396669	-0.0787066168	0.0551977091
-0.0127126608	-0.078869195	0.0778008208
0.0672644484	-0.0785252051	0.0551720342
-0.0927795997	-0.0121954474	0.0706210381
-0.0127777094	-0.012068189	0.0935305306
0.0671884277	-0.0119960308	0.0706175917
-0.0928355851	0.05441765	0.0552285067
-0.0128614052	0.0546352072	0.0778799994
0.0671278093	0.0546121752	0.0552155834

VECTORS	v 	float 
0.0	0.0	0.0
5.40129e-05	0.0	0.0
0.0001043339	0.0	0.0
0.0	4.69743e-05	0.0
4.58203e-05	3.80897e-05	0.0
9.46659e-05	4.645e-05	0.0
0.0	8.76453e-05	0.0
5.62632e-05	8.1126e-05	0.0
0.0001106798	8.6818e-05	0.0
-2.51043e-05	-1.84125e-05	0.000121206
4.87957e-05	-2.67149e-05	7.42876e-05
0.0001238206	-2.03991e-05	0.0001207991
-2.84634e-05	4.24744e-05	9.33132e-05
5.16126e-05	4.37885e-05	4.8483e-05
0.0001306316	4.07592e-05	9.37438e-05
-2.43762e-05	0.0001050011	0.0001202807
5.00225e-05	0.0001127412	7.30031e-05
0.000124983	0.0001034833	0.0001200728
0.0002467297	0.0002088634	7.45637e-05
5.03027e-05	0.0002034928	-3.12002e-05
-0.0001465365	0.000207602	7.38235e-05
0.0002341741	4.47457e-05	-2.3622e-06
4.99405e-05	4.31469e-05	-0.0001050903
-0.0001338377	4.32641e-05	-1.5462e-06
0.0002483816	-0.0001198613	7.29857e-05
5.14072e-05	-0.0001166327	-3.16877e-05
-0.0001456664	-0.0001215097	7.23322e-05

VECTORS	a 	float 
0.0	0.0	0.0
0.8958006087	0.0	0.0
1.7899662187	0.0	0.0
0.0	0.7192797544	0.0
0.8901953114	0.7131765488	0.0
1.7817742169	0.7191744803	0.0
0.0	1.4357395694	0.0
0.8971873353	1.4284501549	0.0
1.7934541577	1.4355299312	0.0
-0.0003457868	0.0043794406	-3.0763756227
0.8923379737	-0.0013771443	-3.0835211338
1.7855534018	0.0033449207	-3.0766865264
-0.0039477739	0.716136666	-3.0791400551
0.8941020694	0.7170454992	-3.0844428491
1.7916044991	0.7152171677	-3.0788436043
9.15818e-05	1.4286534706	-3.0768014195
0.8929401862	1.4347996907	-3.0843689679
1.7860931125	1.4278495288	-3.0770271874
-0.005004447	-0.0028026172	-6.1573304038
0.8933045487	-0.0118600613	-6.1772560663
1.7914611318	-0.0035181461	-6.1579138147
-0.0172601253	0.7175220675	-6.1691290144
0.8930276488	0.7166351223	-6.1861454688
1.8035219478	0.7167009397	-6.1685467939
-0.0040932225	1.4376852314	-6.158229536
0.8939538449	1.4453265585	-6.1775221968
1.7919796729	1.4367604427	-6.1587560916

SCALARS	theta	float 1
LOOKUP_TABLE	default
297.1743799622
297.2207266793
297.1769483413
297.1914143696
297.2326044486
297.1919823677
297.1788281768
297.2159412617
297.178773743
303.9964625053
304.0733924763
303.9959535495
304.0343362592
304.1122037458
304.03424798
303.9955928976
304.074168489
303.9955859879
315.7817329047
315.9050956107
315.7817185695
315.8448752542
315.9683290134
315.8448250702
315.7821226501
315.9050925443
315.7820531348

SCALARS	sig_11	float	1
LOOKUP_TABLE	default
11.2804902929
25.2473930016
12.4550735337
21.678229512
34.0295857292
21.1393180793
11.7758483913
23.5891840754
11.8431003263
-2.2742327675
4.084330082
-2.3552941608
3.0343891385
9.5722158624
3.0664187011
-2.6121773584
3.909080207
-2.6276505753
-31.314626063
-29.9614234313
-31.2918278081
-29.9504282448
-28.555426121
-29.9579264469
-31.2528687121
-29.9398087375
-31.2451130733

SCALARS	sig_22	float	1
LOOKUP_TABLE	default
5.495774095
18.5053510429
6.4488373594
16.7679058071
27.4108954852
16.7839131443
7.7435208059
16.4355266105
7.8178151775
-2.4182852607
1.9936424865
-2.4832457483
3.1416501143
7.7890370117
3.1461008519
-2.6195523142
2.1088312389
-2.6195021404
-23.55395369
-22.5197282983
-23.5390947997
-22.1122134724
-21.0624861581
-22.1055559567
-23.47936781
-22.5653289277
-23.4821950459

SCALARS	sig_33	float	1
LOOKUP_TABLE	default
20.7262573013
54.7875161699
21.3444508413
45.4718757454
78.4073749081
45.2696659939
21.6721672163
53.8217030109
21.6673238845
-2.0101509166
17.3730217508
-2.0758601357
12.4628490367
32.0840058855
12.4656655827
-2.1230170719
17.4327709147
-2.1392965968
-85.4976870464
-78.5147523029
-85.532156297
-80.4874623109
-73.3020304164
-80.4664295736
-85.507939818
-78.4914065934
-85.4829617431

SCALARS vonMises	float	1
LOOKUP_TABLE	default
71.1168491276
53.6621350312
70.526028188
59.2239568207
42.1466431469
59.5202731213
70.41864571
55.1427726314
70.5091877892
63.4488641089
59.2045323242
63.3906102509
60.9645023033
57.9595426685
60.9895059261
63.3750276953
59.2546193952
63.3855354517
79.4658728387
77.4105776272
79.5877338305
78.3547029275
76.3025958649
78.3121016516
79.6738929209
77.3219902184
79.6618809591
