# vtk DataFile Version 2.0
Results
ASCII
DATASET UNSTRUCTURED_GRID
POINTS         27           float
0.0	0.0	0.0	
50.0	0.0	0.0	
100.0	0.0	0.0	
0.0	40.0	0.0	
50.0	40.0	0.0	
100.0	40.0	0.0	
0.0	80.0	0.0	
50.0	80.0	0.0	
100.0	80.0	0.0	
0.0	0.0	70.0	
50.0	0.0	70.0	
100.0	0.0	70.0	
0.0	40.0	70.0	
50.0	40.0	70.0	
100.0	40.0	70.0	
0.0	80.0	70.0	
50.0	80.0	70.0	
100.0	80.0	70.0	
0.0	0.0	140.0	
50.0	0.0	140.0	
100.0	0.0	140.0	
0.0	40.0	140.0	
50.0	40.0	140.0	
100.0	40.0	140.0	
0.0	80.0	140.0	
50.0	80.0	140.0	
100.0	80.0	140.0	

CELLS	8	72
 8	0	1	4	3	9	10	13	12	
 8	1	2	5	4	10	11	14	13	
 8	4	5	8	7	13	14	17	16	
 8	3	4	7	6	12	13	16	15	
 8	9	10	13	12	18	19	22	21	
 8	10	11	14	13	19	20	23	22	
 8	13	14	17	16	22	23	26	25	
 8	12	13	16	15	21	22	25	24	

CELL_TYPES	8
 12
 12
 12
 12
 12
 12
 12
 12

POINT_DATA	27
VECTORS	u 	float 
0.0	0.0	0.0
0.0031056863	0.0	0.0
0.0062939992	0.0	0.0
0.0	0.0080559689	0.0
0.0030081881	0.0080027488	0.0
0.0059633538	0.0083095252	0.0
0.0	0.0171845689	0.0
0.0028479186	0.0151361633	0.0
0.0054890641	0.0175872459	0.0
0.0214668565	0.028348137	-0.0270963907
0.0031197116	0.0325781159	-0.0088312017
-0.0152559181	0.0286901089	-0.0271269623
0.0215449786	0.0079401429	-0.0161080139
0.0029956824	0.0080428502	0.0016139188
-0.0155473876	0.0082423783	-0.0161788602
0.0213072938	-0.0127203358	-0.0270010096
0.002872189	-0.0162412405	-0.0087223629
-0.0155184222	-0.0124221355	-0.0270516713
-0.1099951964	-0.0943448937	-0.0031413025
0.0031516942	-0.0894479695	0.04992451
0.1163196892	-0.0940531505	-0.00320477
-0.1091473921	0.0078146102	0.0391461817
0.0030349849	0.0080001076	0.0919699299
0.1152132663	0.008121241	0.0391058147
-0.1102830736	0.1100929483	-0.0030628969
0.0029171178	0.1053278759	0.0500435002
0.116100318	0.1103902943	-0.0031168525

VECTORS	v 	float 
0.0	0.0	0.0
0.0021448793	0.0	0.0
0.00429187	0.0	0.0
0.0	0.0017498895	0.0
0.0021398513	0.0017439507	0.0
0.0042785096	0.0017523862	0.0
0.0	0.0035108439	0.0
0.002143083	0.0034785983	0.0
0.0042850305	0.0035142525	0.0
-1.63434e-05	6.59559e-05	-0.0079890101
0.0021426159	9.82916e-05	-0.0077484771
0.004301058	6.89213e-05	-0.0079893753
-1.5827e-05	0.0017458438	-0.0078352001
0.0021424579	0.0017476868	-0.0075960478
0.0043008452	0.0017483865	-0.0078354545
-1.76051e-05	0.0034232665	-0.0079882325
0.0021404166	0.0033995546	-0.0077479887
0.0042986909	0.0034258822	-0.0079888632
-0.0013925878	-0.0011833576	-0.0151559654
0.0021433761	-0.0011617823	-0.0146049584
0.0056796941	-0.0011809921	-0.0151568859
-0.0013937593	0.0017456324	-0.0147308797
0.0021420423	0.0017469127	-0.0141775367
0.0056777785	0.0017481643	-0.0147307429
-0.0013948811	0.0046759405	-0.0151559951
0.0021415157	0.0046543409	-0.0146036811
0.0056778756	0.0046783199	-0.015156726

VECTORS	a 	float 
0.0	0.0	0.0
0.6319763194	0.0	0.0
1.2636538599	0.0	0.0
0.0	0.5060634057	0.0
0.63102649	0.505101321	0.0
1.2623047391	0.5060648348	0.0
0.0	1.0116990715	0.0
0.6321978647	1.0105186399	0.0
1.2642038147	1.0116985149	0.0
0.0031317644	0.0034484426	-2.1723964091
0.6313958792	0.0028838595	-2.1730536458
1.2597544384	0.0032938193	-2.1724413324
0.0028407861	0.5055711342	-2.1724282942
0.6316849302	0.5057161817	-2.1729446653
1.2604307974	0.5054344829	-2.1723910339
0.0031950411	1.0078102348	-2.1724439014
0.6314814924	1.0084469051	-2.173207332
1.2598271414	1.0076945447	-2.1724838135
-0.0051310804	-0.0041641241	-4.3416916278
0.6315593019	-0.0049537441	-4.342717956
1.2682242969	-0.0042664522	-4.3417913003
-0.0064988577	0.5057880611	-4.3414279359
0.6315082235	0.5056577026	-4.3421313552
1.2695522132	0.5056672087	-4.3413343463
-0.0049860982	1.0157237012	-4.3418317684
0.6316592295	1.016293123	-4.3427560884
1.2682994594	1.0155825255	-4.3419285871

SCALARS	theta	float 1
LOOKUP_TABLE	default
302.7761780104
302.4963250266
302.7610077419
302.6619610177
302.4152375258
302.6585997822
302.7488287229
302.5283431667
302.75182105
294.6772573787
294.3417421046
294.6794463707
294.4665684174
294.1264156346
294.4668456949
294.6836775362
294.3384041314
294.683272887
324.0064733404
323.5231619033
324.0064797827
323.6695338301
323.1861605664
323.6693552197
324.0047751965
323.5234705517
324.0048534746

SCALARS	sig_11	float	1
LOOKUP_TABLE	default
-79.1590842625
-57.2770388945
-78.2765273425
-66.0561618244
-46.1302513673
-65.9204737033
-78.3756900847
-59.8495089065
-78.8982336347
54.9248301337
81.6937970382
54.865102762
78.0636870764
104.8578505201
78.0501245615
54.4993854924
81.4698814174
54.5186435204
-131.4229249765
-95.9582021817
-131.4242912236
-98.3359975089
-62.7943733352
-98.3230397706
-131.3262268453
-95.9218086712
-131.3448588898

SCALARS	sig_22	float	1
LOOKUP_TABLE	default
-69.0596094446
-49.3281391169
-67.7344830918
-54.8113674013
-38.2773191782
-54.1051395422
-66.1016189914
-52.2075558283
-65.9090861957
42.7368100731
61.8286123027
42.7108850984
66.6114538813
85.8345090226
66.6325540261
42.4754133696
61.9727455226
42.5269513848
-106.0547476111
-80.1965172854
-106.071431959
-71.27926433
-45.386431284
-71.2750506333
-105.9498039126
-80.2499197638
-105.9871755763

SCALARS	sig_33	float	1
LOOKUP_TABLE	default
-117.5637551734
-74.7872613398
-116.8543954184
-91.5875396512
-50.9843779806
-91.4321669308
-116.0847766254
-76.4160955907
-116.3246659959
76.7368825116
133.7373117868
76.6503655228
124.6523953493
181.5627355505
124.6070840205
76.6105823985
133.8137359228
76.5750691939
-296.1609879755
-220.8872714607
-296.2107464903
-225.6435821605
-150.1687690606
-225.5975928563
-296.1244495366
-220.8704447953
-296.1286911305

SCALARS vonMises	float	1
LOOKUP_TABLE	default
105.3954356188
89.7882658748
106.0006598748
77.489103662
50.666401742
77.5924486933
106.9730742334
88.6447355075
106.8101792076
201.3207136599
166.101617158
201.6505986663
160.524675562
113.4530054266
160.5592249238
201.9565772311
165.2904337641
201.8523923562
208.2011732563
180.0145499773
208.2807414269
190.2664782615
163.1747738364
190.2630030672
208.4345880342
179.89270565
208.3803727591
