# vtk DataFile Version 2.0
Results
ASCII
DATASET UNSTRUCTURED_GRID
POINTS         27           float
0.0	0.0	0.0	
50.0	0.0	0.0	
100.0	0.0	0.0	
0.0	40.0	0.0	
50.0	40.0	0.0	
100.0	40.0	0.0	
0.0	80.0	0.0	
50.0	80.0	0.0	
100.0	80.0	0.0	
0.0	0.0	70.0	
50.0	0.0	70.0	
100.0	0.0	70.0	
0.0	40.0	70.0	
50.0	40.0	70.0	
100.0	40.0	70.0	
0.0	80.0	70.0	
50.0	80.0	70.0	
100.0	80.0	70.0	
0.0	0.0	140.0	
50.0	0.0	140.0	
100.0	0.0	140.0	
0.0	40.0	140.0	
50.0	40.0	140.0	
100.0	40.0	140.0	
0.0	80.0	140.0	
50.0	80.0	140.0	
100.0	80.0	140.0	

CELLS	8	72
 8	0	1	4	3	9	10	13	12	
 8	1	2	5	4	10	11	14	13	
 8	4	5	8	7	13	14	17	16	
 8	3	4	7	6	12	13	16	15	
 8	9	10	13	12	18	19	22	21	
 8	10	11	14	13	19	20	23	22	
 8	13	14	17	16	22	23	26	25	
 8	12	13	16	15	21	22	25	24	

CELL_TYPES	8
 12
 12
 12
 12
 12
 12
 12
 12

POINT_DATA	27
VECTORS	u 	float 
0.0	0.0	0.0
-0.0058940909	0.0	0.0
-0.0114232139	0.0	0.0
0.0	-0.0067116117	0.0
-0.0059005279	-0.0067377526	0.0
-0.0120627345	-0.0065862316	0.0
0.0	-0.0126850904	0.0
-0.0060165898	-0.0140949337	0.0
-0.0119192458	-0.0125501739	0.0
-0.0293034262	-0.0261250253	0.0003921118
-0.0058575134	-0.0250983952	0.014283103
0.017501399	-0.0259450296	0.000400057
-0.0292704742	-0.0067620677	0.0101720755
-0.0059357006	-0.0067223335	0.0241473753
0.0174634749	-0.0066111793	0.0101577133
-0.0293610072	0.0124289647	0.0004448103
-0.0059839492	0.011819484	0.0143230072
0.0173627138	0.0125809107	0.000428885
-0.0712769934	-0.0606722212	0.0617284408
-0.0058670049	-0.0608719159	0.0769906288
0.0595840566	-0.0605305194	0.0617092663
-0.0714758144	-0.0068281418	0.0717389391
-0.0059173392	-0.0067284031	0.0872595387
0.0596111238	-0.0066720871	0.0717375898
-0.0714306312	0.0470968385	0.0617494299
-0.005983282	0.0473378788	0.0770507685
0.0594773715	0.0472491993	0.0617406376

VECTORS	v 	float 
0.0	0.0	0.0
7.89925e-05	0.0	0.0
0.0001607663	0.0	0.0
0.0	5.67033e-05	0.0
8.57139e-05	6.28412e-05	0.0
0.0001689943	5.64121e-05	0.0
0.0	0.0001162408	0.0
7.7218e-05	0.000123673	0.0
0.000156478	0.0001159472	0.0
6.39201e-05	3.52164e-05	8.31119e-05
8.30932e-05	4.18839e-05	6.30533e-05
0.0001013788	3.63603e-05	8.34726e-05
7.09247e-05	5.97182e-05	6.71194e-05
8.10003e-05	5.88207e-05	4.55882e-05
9.20093e-05	6.07573e-05	6.69184e-05
6.34735e-05	8.33913e-05	8.36069e-05
8.24754e-05	7.64748e-05	6.43349e-05
0.0001008786	8.42427e-05	8.38858e-05
0.0001948418	0.0001629444	4.9023e-05
8.19377e-05	0.0001719986	1.69673e-05
-3.06934e-05	0.0001638357	4.99117e-05
0.0002109322	5.80642e-05	2.28732e-05
8.22528e-05	5.90206e-05	-1.25156e-05
-4.6807e-05	5.91075e-05	2.21394e-05
0.0001935881	-4.67177e-05	5.03014e-05
8.10562e-05	-5.41384e-05	1.73088e-05
-3.13837e-05	-4.54719e-05	5.10761e-05

VECTORS	a 	float 
0.0	0.0	0.0
-0.8939453366	0.0	0.0
-1.7848686749	0.0	0.0
0.0	-0.7212227679	0.0
-0.8856440927	-0.7124893757	0.0
-1.7738411023	-0.7210562041	0.0
0.0	-1.4377128384	0.0
-0.8961312348	-1.4285416105	0.0
-1.7905227122	-1.437381193	0.0
0.0051143167	-0.0071075259	3.0712162102
-0.8887889007	0.0022134986	3.0845353698
-1.7836400859	-0.0054232467	3.0716707508
0.0112743929	-0.7168045724	3.0773151153
-0.8914748602	-0.7180715051	3.0882251912
-1.7932605424	-0.7153147539	3.0768912838
0.0044400455	-1.4277704345	3.0718946761
-0.889778067	-1.4372184807	3.0859312371
-1.7845374202	-1.4264760999	3.072212862
0.006484007	0.0031063466	6.1581317636
-0.890228351	0.0155119824	6.186435042
-1.7866420227	0.0042999094	6.1590198493
0.0249106701	-0.7189387124	6.1744147404
-0.8898633135	-0.7175552362	6.1987330068
-1.8050231978	-0.7175633924	6.1735337634
0.0049359661	-1.4406977212	6.1595688909
-0.8913223625	-1.4509765185	6.1869021087
-1.787515735	-1.4391448803	6.1603708569

SCALARS	theta	float 1
LOOKUP_TABLE	default
298.4184073974
298.4700720673
298.4215150692
298.4420218296
298.4886054193
298.4420014421
298.4223757819
298.4653166883
298.42230497
304.9097184005
304.9454623533
304.9093548126
304.9259527842
304.9626705915
304.9260624573
304.9087300699
304.9458877723
304.908723619
312.8911022368
312.9213332965
312.8910159731
312.9032477206
312.9335316466
312.903154516
312.891385781
312.9213725203
312.8913817928

SCALARS	sig_11	float	1
LOOKUP_TABLE	default
15.1200989258
25.9844974718
16.0680023333
23.3129496193
32.8892625398
22.8621975217
15.5142022182
24.6874696916
15.5883015282
-6.9146439039
-2.3184341051
-6.9822200195
-3.2303186714
1.5122793154
-3.2039547668
-7.1811527184
-2.4554270388
-7.1950297982
-18.9099327334
-18.483681713
-18.890180899
-18.7516148641
-18.2943622602
-18.7580752126
-18.8616512965
-18.4675715721
-18.8546395877

SCALARS	sig_22	float	1
LOOKUP_TABLE	default
9.4459727491
19.5603385043
10.1913079495
18.3190869857
26.5661643519
18.3140884144
11.224345013
17.9317226406
11.2771898272
-5.9788358754
-2.8264655652
-6.0340489949
-2.1568749149
1.1849743265
-2.1547442941
-6.1368719359
-2.7334901603
-6.1389868201
-13.8078938042
-13.4750406773
-13.7942115876
-13.7346681066
-13.3917983527
-13.7288395251
-13.7487555359
-13.5115081941
-13.7498274029

SCALARS	sig_33	float	1
LOOKUP_TABLE	default
25.0882881858
51.728292301
25.5749013964
44.6882634681
70.4586697413
44.5207802888
25.8322143328
50.9759054395
25.8360957172
-9.1592619559
4.2426829967
-9.2140662193
0.4634692342
14.0636269164
0.4660168843
-9.2484008338
4.2917934449
-9.2610729386
-53.7808072774
-51.7944205844
-53.8070353925
-53.4613941285
-51.3162096766
-53.4445925947
-53.7907691473
-51.7764830558
-53.7693986918

SCALARS vonMises	float	1
LOOKUP_TABLE	default
68.1793350403
51.2039938187
67.6891060103
55.4576250926
36.8983073123
55.705825947
67.5697571045
52.3623192801
67.6339234621
48.5638580643
44.4416375818
48.476292987
46.2953828432
43.3570025229
46.3359561495
48.4519920732
44.5937878541
48.4606565147
53.6774522525
53.4028443058
53.7765087833
53.7090519361
53.3796055067
53.6720737423
53.8435704046
53.3343811153
53.8355544301
