# vtk DataFile Version 2.0
Results
ASCII
DATASET UNSTRUCTURED_GRID
POINTS         27           float
0.0	0.0	0.0	
50.0	0.0	0.0	
100.0	0.0	0.0	
0.0	40.0	0.0	
50.0	40.0	0.0	
100.0	40.0	0.0	
0.0	80.0	0.0	
50.0	80.0	0.0	
100.0	80.0	0.0	
0.0	0.0	70.0	
50.0	0.0	70.0	
100.0	0.0	70.0	
0.0	40.0	70.0	
50.0	40.0	70.0	
100.0	40.0	70.0	
0.0	80.0	70.0	
50.0	80.0	70.0	
100.0	80.0	70.0	
0.0	0.0	140.0	
50.0	0.0	140.0	
100.0	0.0	140.0	
0.0	40.0	140.0	
50.0	40.0	140.0	
100.0	40.0	140.0	
0.0	80.0	140.0	
50.0	80.0	140.0	
100.0	80.0	140.0	

CELLS	8	72
 8	0	1	4	3	9	10	13	12	
 8	1	2	5	4	10	11	14	13	
 8	4	5	8	7	13	14	17	16	
 8	3	4	7	6	12	13	16	15	
 8	9	10	13	12	18	19	22	21	
 8	10	11	14	13	19	20	23	22	
 8	13	14	17	16	22	23	26	25	
 8	12	13	16	15	21	22	25	24	

CELL_TYPES	8
 12
 12
 12
 12
 12
 12
 12
 12

POINT_DATA	27
VECTORS	u 	float 
0.0	0.0	0.0
-0.0046383103	0.0	0.0
-0.0089256322	0.0	0.0
0.0	-0.00566877	0.0
-0.004644228	-0.0056938204	0.0
-0.0095401531	-0.0055487339	0.0
0.0	-0.0106303777	0.0
-0.0047554947	-0.0119812702	0.0
-0.0094009418	-0.0105016425	0.0
-0.028391613	-0.0253733458	0.0019923548
-0.0046030957	-0.0243927756	0.0152901012
0.019101845	-0.025200992	0.0020000899
-0.0283626722	-0.0057169433	0.0113653368
-0.0046780015	-0.0056789038	0.0247452628
0.019068642	-0.0055724388	0.0113516807
-0.0284465706	0.0137747016	0.0020426096
-0.0047241794	0.0131936808	0.0153280197
0.018968869	0.0139202497	0.0020273913
-0.0680978482	-0.0579772971	0.0624889949
-0.0046122135	-0.0581735952	0.0768815172
0.0589128686	-0.0578414496	0.0624707304
-0.0682969393	-0.0057800136	0.0718889673
-0.004660474	-0.0056844851	0.0865302832
0.0589471329	-0.0056303992	0.0718877962
-0.0682451394	0.0464947577	0.0625086902
-0.0047237485	0.0467306571	0.0769387845
0.0588104984	0.046640865	0.0625003946

VECTORS	v 	float 
0.0	0.0	0.0
6.90698e-05	0.0	0.0
0.00013374	0.0	0.0
0.0	6.65949e-05	0.0
6.18489e-05	5.92394e-05	0.0
0.000127299	6.59762e-05	0.0
0.0	0.0001260714	0.0
7.14236e-05	0.0001240935	0.0
0.0001406946	0.0001251242	0.0
4.31328e-05	5.29169e-05	0.0001071448
6.43718e-05	4.07705e-05	5.49645e-05
8.68721e-05	5.0646e-05	0.00010678
3.68487e-05	6.30721e-05	7.38992e-05
6.70379e-05	6.39457e-05	2.31168e-05
9.60124e-05	6.11095e-05	7.43508e-05
4.39471e-05	7.50426e-05	0.0001063586
6.58019e-05	8.53972e-05	5.33734e-05
8.82738e-05	7.33033e-05	0.0001061701
0.0001783108	0.0001544596	4.31899e-05
6.5592e-05	0.0001457627	-3.05327e-05
-4.76158e-05	0.0001526887	4.25239e-05
0.0001623532	6.53041e-05	-4.4993e-06
6.55448e-05	6.36618e-05	-7.60484e-05
-3.07119e-05	6.32962e-05	-3.6965e-06
0.0001805425	-2.44013e-05	4.17059e-05
6.71903e-05	-1.77944e-05	-3.1255e-05
-4.62935e-05	-2.6592e-05	4.10772e-05

VECTORS	a 	float 
0.0	0.0	0.0
0.8936411269	0.0	0.0
1.7840169667	0.0	0.0
0.0	0.7215620364	0.0
0.8848655397	0.712368047	0.0
1.7724884161	0.7213836529	0.0
0.0	1.4380514564	0.0
0.8959675013	1.4285594641	0.0
1.7900538914	1.4376963818	0.0
-0.00590629	0.0075901989	-3.0702740701
0.8881851514	-0.002375101	-3.0847268684
1.7832974198	0.0057892483	-3.0707532518
-0.012518508	0.7169205721	-3.0769824963
0.891033168	0.7182478346	-3.0889269689
1.793548476	0.7153282357	-3.0765361596
-0.0051888363	1.4276099724	-3.0709962612
0.8892443989	1.4376493643	-3.0862204372
1.7842598921	1.426227114	-3.0713303003
-0.0067456387	-0.0031446873	-6.1581682318
0.8897053174	-0.0161605105	-6.188065543
1.7858317064	-0.0044292661	-6.1591089404
-0.0262680106	0.7191871923	-6.1753239241
0.8893281287	0.7177149505	-6.2010480834
1.8053417937	0.717707613	-6.1743906091
-0.005078645	1.4412108038	-6.1596993755
0.8908840241	1.4519727457	-6.1885689491
1.7867742143	1.4395406473	-6.160548839

SCALARS	theta	float 1
LOOKUP_TABLE	default
298.6707003249
298.7215253499
298.673774233
298.6942388089
298.7400936744
298.6941831532
298.6745456808
298.7168550816
298.674459524
304.9821741044
305.0140526548
304.981831562
304.9965899897
305.0294204407
304.9967100302
304.9811914679
305.0144353405
304.9811857492
312.5119290835
312.5348025358
312.5118428359
312.5204216191
312.5433477152
312.520332369
312.5121934336
312.5348400229
312.5121984118

SCALARS	sig_11	float	1
LOOKUP_TABLE	default
15.0130169008
25.4029840794
15.9220634078
22.8563584413
32.0123930456
22.4229585814
15.3905827657
24.1623396346
15.4631344123
-7.0629922704
-2.694185226
-7.1280129066
-3.5775963107
0.9318027091
-3.5522879528
-7.3181589812
-2.8251771754
-7.3315508728
-17.6135901332
-17.2551882541
-17.5945650133
-17.5405435485
-17.1526743818
-17.5467948191
-17.5673751688
-17.2398471391
-17.5606329263

SCALARS	sig_22	float	1
LOOKUP_TABLE	default
9.4848039754
19.1572825365
10.1979338275
17.9779781581
25.8628436119
17.9720299494
11.1879636387
17.5985412696
11.2382703283
-6.0759531009
-3.0832023123
-6.1291504104
-2.4650484087
0.7094546438
-2.463114581
-6.227173324
-2.9939016149
-6.2293331242
-12.8133156054
-12.5329606026
-12.8000801099
-12.8354990152
-12.5458051402
-12.8298882304
-12.7566202031
-12.5678983021
-12.757588045

SCALARS	sig_33	float	1
LOOKUP_TABLE	default
24.7736212937
50.2647131658
25.2392742041
43.5477737479
68.2083034005
43.3868926895
25.485634513
49.5454396353
25.4900923528
-9.4240652202
3.2510489305
-9.4768349571
-0.3636065218
12.5022522267
-0.3611576721
-9.5094171935
3.2983374683
-9.5215012061
-50.3284459208
-48.7236477668
-50.3535315757
-50.3347544376
-48.5780676519
-50.3186669599
-50.3381279319
-48.7064992809
-50.3175681657

SCALARS vonMises	float	1
LOOKUP_TABLE	default
66.3313099159
49.8065440061
65.860096993
53.8652850707
35.6583856623
54.1037367779
65.7435519423
50.9147911859
65.8043783754
46.4209879638
42.4359157968
46.3344945827
44.2330402965
41.3464848658
44.2734696952
46.3105094273
42.5900030067
46.3188877968
50.6294074278
50.4825857231
50.7244860395
50.7385813861
50.5370000237
50.7030198041
50.7884936517
50.4172773967
50.7810392137
