# vtk DataFile Version 2.0
Results
ASCII
DATASET UNSTRUCTURED_GRID
POINTS         27           float
0.0	0.0	0.0	
50.0	0.0	0.0	
100.0	0.0	0.0	
0.0	40.0	0.0	
50.0	40.0	0.0	
100.0	40.0	0.0	
0.0	80.0	0.0	
50.0	80.0	0.0	
100.0	80.0	0.0	
0.0	0.0	70.0	
50.0	0.0	70.0	
100.0	0.0	70.0	
0.0	40.0	70.0	
50.0	40.0	70.0	
100.0	40.0	70.0	
0.0	80.0	70.0	
50.0	80.0	70.0	
100.0	80.0	70.0	
0.0	0.0	140.0	
50.0	0.0	140.0	
100.0	0.0	140.0	
0.0	40.0	140.0	
50.0	40.0	140.0	
100.0	40.0	140.0	
0.0	80.0	140.0	
50.0	80.0	140.0	
100.0	80.0	140.0	

CELLS	8	72
 8	0	1	4	3	9	10	13	12	
 8	1	2	5	4	10	11	14	13	
 8	4	5	8	7	13	14	17	16	
 8	3	4	7	6	12	13	16	15	
 8	9	10	13	12	18	19	22	21	
 8	10	11	14	13	19	20	23	22	
 8	13	14	17	16	22	23	26	25	
 8	12	13	16	15	21	22	25	24	

CELL_TYPES	8
 12
 12
 12
 12
 12
 12
 12
 12

POINT_DATA	27
VECTORS	u 	float 
0.0	0.0	0.0
-0.0114779051	0.0	0.0
-0.0225309418	0.0	0.0
0.0	-0.0111418264	0.0
-0.0114880344	-0.0111723178	0.0
-0.0232798974	-0.0109894331	0.0
0.0	-0.0213952879	0.0
-0.0116274008	-0.0230887895	0.0
-0.0231281531	-0.0212269051	0.0
-0.0321901395	-0.0281023502	-0.0076618153
-0.0114348464	-0.0268321744	0.0091764702
0.0092183473	-0.0278836193	-0.0076534633
-0.0321301676	-0.0112033845	0.0040869481
-0.0115291632	-0.0111544863	0.0210127608
0.0091463326	-0.0110199991	0.0040685488
-0.0322621583	0.0054889966	-0.0075966189
-0.01158852	0.0047233511	0.0092268075
0.0090510311	0.0056733494	-0.0076162815
-0.0877361572	-0.0745792627	0.0569704482
-0.0114452282	-0.074764883	0.0775995096
0.0648940931	-0.0744068526	0.0569463719
-0.0878997314	-0.0112849374	0.0708977222
-0.0115068323	-0.0111638074	0.0918253934
0.0648512386	-0.0110953153	0.070894943
-0.0879226345	0.0521068341	0.0569988283
-0.0115866098	0.0523440665	0.0776743466
0.0647643068	0.052291822	0.0569870251

VECTORS	v 	float 
0.0	0.0	0.0
6.1702e-05	0.0	0.0
0.0001195537	0.0	0.0
0.0	5.58742e-05	0.0
5.322e-05	4.68284e-05	0.0
0.0001095934	5.53646e-05	0.0
0.0	0.000105396	0.0
6.39486e-05	9.86452e-05	0.0
0.0001259331	0.0001046145	0.0
-2.5727e-06	5.0901e-06	0.0001175927
5.6336e-05	-3.2596e-06	7.11417e-05
0.000116403	3.1253e-06	0.0001171721
-6.3154e-06	5.12931e-05	8.93751e-05
5.92117e-05	5.26561e-05	4.48576e-05
0.0001236465	4.96007e-05	8.98008e-05
-1.874e-06	9.91501e-05	0.0001166692
5.75436e-05	0.0001070113	6.98529e-05
0.0001175494	9.76543e-05	0.0001164548
0.0002330996	0.0001977155	6.18947e-05
5.79111e-05	0.0001919762	-3.04177e-05
-0.0001177033	0.0001965113	6.11423e-05
0.0002196595	5.3586e-05	-3.4635e-06
5.74946e-05	5.19909e-05	-9.29046e-05
-0.0001041974	5.21605e-05	-2.652e-06
0.0002347035	-9.10385e-05	6.03188e-05
5.89619e-05	-8.74241e-05	-3.09057e-05
-0.0001168901	-9.26318e-05	5.96556e-05

VECTORS	a 	float 
0.0	0.0	0.0
0.8953955937	0.0	0.0
1.788868865	0.0	0.0
0.0	0.7196972772	0.0
0.889201845	0.7130239556	0.0
1.7800298905	0.7195825531	0.0
0.0	1.4361890695	0.0
0.8969464869	1.428440089	0.0
1.7927982622	1.4359598895	0.0
-0.0014286888	0.0049243485	-3.0754459626
0.8915671106	-0.0015061787	-3.0837057599
1.7851809656	0.0037618676	-3.0757873345
-0.0055207078	0.7162747932	-3.0787903179
0.8935276708	0.7172673917	-3.08508884
1.7919423997	0.7152432262	-3.0784689918
-0.0009460409	1.4284882295	-3.0759257881
0.8922442408	1.4352775894	-3.0846634068
1.7857889575	1.4275885472	-3.076170951
-0.0053106374	-0.002899781	-6.1577875269
0.8926408765	-0.0125936957	-6.1791083461
1.7904100442	-0.003699524	-6.1584354864
-0.0188007814	0.7178157849	-6.170253911
0.8923362312	0.7168282324	-6.1884393571
1.8037166021	0.7168947565	-6.169610575
-0.0042824697	1.438344902	-6.158799333
0.8933683018	1.4464779616	-6.1794129772
1.7909886165	1.4373049175	-6.1593837294

SCALARS	theta	float 1
LOOKUP_TABLE	default
297.373270471
297.4230400221
297.376117492
297.3932096823
297.4377117781
297.3935688059
297.3776723955
297.4181676284
297.377650049
304.2876035819
304.3526264997
304.2871254451
304.3187173198
304.384729179
304.3187002937
304.2866759881
304.3533166175
304.2866662451
315.0520078844
315.1463646935
315.0519632939
315.098315331
315.1927422387
315.0982400783
315.0523831189
315.1463789144
315.0523284097

SCALARS	sig_11	float	1
LOOKUP_TABLE	default
13.0344662401
26.3063676615
14.1641063288
22.9557158165
34.679341141
22.4312509538
13.5091440989
24.7271262795
13.5813215989
-4.0345005302
1.868635065
-4.1132008716
0.8461181006
6.9222176509
0.8771376153
-4.357026391
1.7017572252
-4.3724639949
-27.7542951667
-26.7143433618
-27.7318204554
-26.7887559559
-25.709509436
-26.7960761974
-27.6955187486
-26.6940489547
-27.6877169636

SCALARS	sig_22	float	1
LOOKUP_TABLE	default
7.1081215511
19.4681368792
8.0153671928
17.8619325081
27.9623754077
17.8700883179
9.2556087458
17.4936264496
9.3239752577
-3.7918514443
0.2915728225
-3.8553543593
1.309396324
5.6189465723
1.3131056938
-3.9837506964
0.4021318245
-3.9845899371
-20.7277976205
-19.9274522861
-20.7128419092
-19.737942062
-18.9234547531
-19.7313320891
-20.6565584282
-19.9711917192
-20.6587729146

SCALARS	sig_33	float	1
LOOKUP_TABLE	default
22.9665129223
55.3836328662
23.5565777438
46.612401786
77.960739714
46.4161495586
23.8690521254
54.4645225348
23.867001821
-4.6807048905
13.1159001211
-4.7444676137
8.4763541638
26.5039492145
8.4791955023
-4.7885131845
13.1735134978
-4.8040512531
-76.5823759606
-71.2191413266
-76.6148266825
-73.1256025876
-67.569267388
-73.1053992551
-76.5928168743
-71.1970743392
-76.5683182243

SCALARS vonMises	float	1
LOOKUP_TABLE	default
72.2477678363
54.4054848825
71.6738165015
59.6738514737
41.5158963659
59.9627175603
71.5564177379
55.8142871033
71.6395853479
59.8536546985
55.4607483512
59.7795398374
57.353438349
54.3627658498
57.3854283107
59.758690668
55.5527831937
59.7687741724
72.5092853946
71.0577257808
72.6266889177
71.7892402685
70.3143510025
71.7472745518
72.7085305591
70.9737118432
72.6976502349
