# vtk DataFile Version 2.0
Results
ASCII
DATASET UNSTRUCTURED_GRID
POINTS         27           float
0.0	0.0	0.0	
50.0	0.0	0.0	
100.0	0.0	0.0	
0.0	40.0	0.0	
50.0	40.0	0.0	
100.0	40.0	0.0	
0.0	80.0	0.0	
50.0	80.0	0.0	
100.0	80.0	0.0	
0.0	0.0	70.0	
50.0	0.0	70.0	
100.0	0.0	70.0	
0.0	40.0	70.0	
50.0	40.0	70.0	
100.0	40.0	70.0	
0.0	80.0	70.0	
50.0	80.0	70.0	
100.0	80.0	70.0	
0.0	0.0	140.0	
50.0	0.0	140.0	
100.0	0.0	140.0	
0.0	40.0	140.0	
50.0	40.0	140.0	
100.0	40.0	140.0	
0.0	80.0	140.0	
50.0	80.0	140.0	
100.0	80.0	140.0	

CELLS	8	72
 8	0	1	4	3	9	10	13	12	
 8	1	2	5	4	10	11	14	13	
 8	4	5	8	7	13	14	17	16	
 8	3	4	7	6	12	13	16	15	
 8	9	10	13	12	18	19	22	21	
 8	10	11	14	13	19	20	23	22	
 8	13	14	17	16	22	23	26	25	
 8	12	13	16	15	21	22	25	24	

CELL_TYPES	8
 12
 12
 12
 12
 12
 12
 12
 12

POINT_DATA	27
VECTORS	u 	float 
0.0	0.0	0.0
-0.0145713915	0.0	0.0
-0.0287194291	0.0	0.0
0.0	-0.011531732	0.0
-0.0146071893	-0.0115629062	0.0
-0.0295087413	-0.011321924	0.0
0.0	-0.0219352979	0.0
-0.0147770625	-0.0240663342	0.0
-0.0294874587	-0.0216738852	0.0
-0.0222380823	-0.0158068107	-0.0214778452
-0.0145266627	-0.0137509441	0.000189239
-0.0069214234	-0.0155112562	-0.0214765174
-0.0221660384	-0.0116135399	-0.0070097837
-0.014647703	-0.0115422265	0.0146556651
-0.007059036	-0.0113639484	-0.0070426823
-0.0223481306	-0.0076811211	-0.021388572
-0.0147353787	-0.0090775875	0.0002623179
-0.0071442163	-0.007432046	-0.0214191663
-0.1197403857	-0.1015312083	0.0407690389
-0.0145304237	-0.1010112601	0.0791269077
0.0907320455	-0.101295404	0.0407310045
-0.1196892981	-0.0117242178	0.0688384291
-0.0146181359	-0.0115618724	0.1074746373
0.0904199888	-0.0114666395	0.0688264423
-0.1199897268	0.0782059201	0.0408160402
-0.0147234113	0.0777679245	0.0792307254
0.0905528483	0.0784571323	0.0407924095

VECTORS	v 	float 
0.0	0.0	0.0
-5.07338e-05	0.0	0.0
-0.0001001978	0.0	0.0
0.0	-8.27563e-05	0.0
-4.54995e-05	-7.43738e-05	0.0
-9.21295e-05	-8.29378e-05	0.0
0.0	-0.0001659413	0.0
-5.06285e-05	-0.0001483858	0.0
-0.0001002659	-0.0001662679	0.0
-0.0002667571	-0.0002912272	0.0001260802
-4.75615e-05	-0.0003013562	8.54929e-05
0.0001713546	-0.0002912853	0.0001265612
-0.0002636065	-7.77541e-05	0.0001091048
-4.87181e-05	-7.94109e-05	6.69332e-05
0.0001666064	-7.78622e-05	0.0001087385
-0.0002665747	0.0001357339	0.0001261715
-4.74624e-05	0.000142485	8.55573e-05
0.0001714184	0.0001355181	0.0001265666
0.0003370491	0.0002851547	0.0002358447
-4.84423e-05	0.000279078	4.8298e-06
-0.0004338117	0.0002849315	0.000236297
0.0003485073	-7.87986e-05	3.96119e-05
-4.78207e-05	-7.83494e-05	-0.000194262
-0.0004444013	-7.89882e-05	3.92865e-05
0.0003371263	-0.0004428916	0.000236278
-4.82588e-05	-0.0004356648	4.5048e-06
-0.0004335418	-0.0004430031	0.0002366721

VECTORS	a 	float 
0.0	0.0	0.0
-0.8966644553	0.0	0.0
-1.7926260508	0.0	0.0
0.0	-0.717547573	0.0
-0.8936070187	-0.7144584373	0.0
-1.7877992246	-0.7175668852	0.0
0.0	-1.4338082416	0.0
-0.8974606422	-1.429822043	0.0
-1.7944568778	-1.4338422807	0.0
-0.0029164398	-0.0027847999	3.0796067071
-0.8948090128	9.42762e-05	3.082737102
-1.7869478767	-0.0022870868	3.0797808425
-0.0011720691	-0.7159718487	3.0803205294
-0.8957455764	-0.7164259534	3.0825250227
-1.7900704863	-0.7155135271	3.0801973793
-0.0031606455	-1.4295085824	3.0798097195
-0.8950830916	-1.4326637532	3.0831852545
-1.7871738802	-1.4290917679	3.0799467925
0.0039918694	0.0027113715	6.1566617931
-0.8953384535	0.00775861	6.1684616523
-1.7946258507	0.0030692724	6.157018378
0.0102997556	-0.7166631714	6.163907313
-0.8951849461	-0.7162342785	6.1740942266
-1.8007351933	-0.7162619058	6.1635884994
0.0035606053	-1.4359751862	6.1571075924
-0.895666181	-1.4402931994	6.1686016163
-1.7948962582	-1.4355282893	6.1574345949

SCALARS	theta	float 1
LOOKUP_TABLE	default
297.5610261026
297.5491613873
297.5590392105
297.5407056765
297.5244199679
297.5436622758
297.5665105666
297.5447626219
297.5647556981
301.0076510972
301.1468306238
301.0071261198
301.1109260432
301.2501780706
301.1100391995
301.0070852567
301.1484345479
301.0073651189
321.0075763871
321.337380552
321.0079425204
321.2484057257
321.578773454
321.248786795
321.008054613
321.3369949067
321.0078043529

SCALARS	sig_11	float	1
LOOKUP_TABLE	default
-13.6482236616
4.2120326576
-12.350048359
-1.0667874618
14.9521384541
-1.5655478409
-13.0991821087
2.1634061457
-13.1309256514
18.8972116909
29.5308278813
18.8153252174
27.8030062201
38.6277734289
27.8336690011
18.4853057148
29.3124023291
18.4756545612
-64.2697903168
-58.0537339005
-64.252044093
-58.1987749844
-51.9276138406
-58.2058867082
-64.1933970648
-58.0230313139
-64.1896234312

SCALARS	sig_22	float	1
LOOKUP_TABLE	default
-15.7261312614
0.8718553329
-14.5287330185
-2.0828551327
11.6590602651
-1.9457131559
-13.0236424311
-1.6536017528
-12.8845546453
14.4175729343
21.8474526773
14.3584887219
23.7169648629
31.4135888325
23.729487547
14.1717623547
21.982823587
14.1847342129
-49.897386685
-45.4436890379
-49.889799758
-43.3549496394
-38.879185138
-43.3509383814
-49.8069036413
-45.4958476919
-49.8168861873

SCALARS	sig_33	float	1
LOOKUP_TABLE	default
-13.2172825555
29.3565502177
-12.4737789351
16.2810248499
57.4350515536
16.091184448
-12.0862920081
28.1676800679
-12.1169681677
30.0531716485
62.6660764991
29.9836989119
55.4459694806
88.2918726856
55.4445151402
29.9186917574
62.7344504746
29.8979498363
-163.640329287
-138.4341009788
-163.6888446074
-141.6539514965
-116.2056730236
-141.6300815274
-163.6472102916
-138.401536679
-163.6241816611

SCALARS vonMises	float	1
LOOKUP_TABLE	default
36.5473682063
30.6336527581
36.0612810645
36.2784883663
38.119386769
36.5666105756
36.4531276499
32.5826778408
36.6424619974
100.2972560552
94.8506003193
100.6232206929
93.5638323303
85.1722627779
93.5154072657
100.8117093012
94.4380914123
100.8023882215
136.2502642051
127.0666744884
136.3842195535
130.726241203
122.0349369082
130.6906585929
136.4966924457
126.9534375672
136.4732396322
