# vtk DataFile Version 2.0
Results
ASCII
DATASET UNSTRUCTURED_GRID
POINTS         27           float
0.0	0.0	0.0	
50.0	0.0	0.0	
100.0	0.0	0.0	
0.0	40.0	0.0	
50.0	40.0	0.0	
100.0	40.0	0.0	
0.0	80.0	0.0	
50.0	80.0	0.0	
100.0	80.0	0.0	
0.0	0.0	70.0	
50.0	0.0	70.0	
100.0	0.0	70.0	
0.0	40.0	70.0	
50.0	40.0	70.0	
100.0	40.0	70.0	
0.0	80.0	70.0	
50.0	80.0	70.0	
100.0	80.0	70.0	
0.0	0.0	140.0	
50.0	0.0	140.0	
100.0	0.0	140.0	
0.0	40.0	140.0	
50.0	40.0	140.0	
100.0	40.0	140.0	
0.0	80.0	140.0	
50.0	80.0	140.0	
100.0	80.0	140.0	

CELLS	8	72
 8	0	1	4	3	9	10	13	12	
 8	1	2	5	4	10	11	14	13	
 8	4	5	8	7	13	14	17	16	
 8	3	4	7	6	12	13	16	15	
 8	9	10	13	12	18	19	22	21	
 8	10	11	14	13	19	20	23	22	
 8	13	14	17	16	22	23	26	25	
 8	12	13	16	15	21	22	25	24	

CELL_TYPES	8
 12
 12
 12
 12
 12
 12
 12
 12

POINT_DATA	27
VECTORS	u 	float 
0.0	0.0	0.0
0.0016407873	0.0	0.0
0.0035616252	0.0	0.0
0.0	-0.000347979	0.0
0.0016377567	-0.0003662262	0.0
0.0030747199	-0.0002532091	0.0
0.0	-0.0001376619	0.0
0.0015486284	-0.0012017479	0.0
0.0031858945	-3.70373e-05	0.0
-0.0232356996	-0.0209136174	0.0095184779
0.0016694889	-0.0201473397	0.0200033769
0.0265082307	-0.0207778517	0.0095249729
-0.0232207331	-0.0003846703	0.0169352862
0.0016100721	-0.0003551849	0.027488493
0.0264903882	-0.0002707875	0.0169247054
-0.0232783818	0.0200140266	0.0095575117
0.0015740844	0.0195620033	0.0200322078
0.0264029142	0.020128823	0.0095456165
-0.0533907071	-0.0454824648	0.0655882127
0.001661787	-0.0456495408	0.0763986706
0.0567456512	-0.0453756135	0.0655741468
-0.0535690712	-0.0004337567	0.072548997
0.0016240143	-0.0003584279	0.0835587224
0.0567941335	-0.0003159639	0.0725483667
-0.0535065	0.0446760656	0.0656025163
0.0015740462	0.0448743173	0.0764426292
0.056665006	0.0447911988	0.0655963419

VECTORS	v 	float 
0.0	0.0	0.0
8.10008e-05	0.0	0.0
0.0001648711	0.0	0.0
0.0	5.37327e-05	0.0
8.67863e-05	6.01975e-05	0.0
0.0001710613	5.4057e-05	0.0
0.0	0.0001120074	0.0
7.91763e-05	0.0001169431	0.0
0.0001597799	0.0001127422	0.0
8.13281e-05	4.67626e-05	4.12603e-05
8.47265e-05	5.54341e-05	4.28506e-05
8.72616e-05	4.84364e-05	4.14722e-05
8.78096e-05	5.68628e-05	4.01385e-05
8.26515e-05	5.60744e-05	4.02206e-05
7.84203e-05	5.83323e-05	3.97074e-05
8.07556e-05	6.58244e-05	4.15887e-05
8.36971e-05	5.78269e-05	4.45143e-05
8.62095e-05	6.70604e-05	4.1807e-05
0.0001677436	0.0001273873	1.88147e-05
8.38146e-05	0.0001361869	2.14453e-05
1.974e-07	0.0001286922	1.94107e-05
0.0001836068	5.50544e-05	1.75731e-05
8.38832e-05	5.62203e-05	1.71594e-05
-1.62693e-05	5.6538e-05	1.67857e-05
0.0001660035	-1.70952e-05	2.00847e-05
8.25782e-05	-2.40578e-05	2.20559e-05
-7.826e-07	-1.5415e-05	2.06875e-05

VECTORS	a 	float 
0.0	0.0	0.0
-0.8919751571	0.0	0.0
-1.7791479775	0.0	0.0
0.0	-0.7231650943	0.0
-0.8803928619	-0.7112582975	0.0
-1.7648388107	-0.7228942832	0.0
0.0	-1.4391396494	0.0
-0.8951256248	-1.4279824669	0.0
-1.7874977205	-1.4385978724	0.0
0.0113309992	-0.0095999894	3.0650588997
-0.8847577019	0.0042530367	3.0865333138
-1.7823178176	-0.0071056242	3.0656713722
0.0202770714	-0.717219581	3.0755221211
-0.8885758267	-0.7189315429	3.0939646632
-1.7959362168	-0.7150298583	3.0749355759
0.0103813324	-1.4267632714	3.0660384501
-0.8862271201	-1.4403665654	3.0886329583
-1.783660472	-1.4248794014	3.0664586041
0.0064530625	0.0029111247	6.1575292886
-0.8867858262	0.0192842727	6.1973483231
-1.7795309455	0.0046506828	6.1587580355
0.031822573	-0.720273008	6.1795758243
-0.8862909054	-0.7182856008	6.214280581
-1.805030376	-0.718252264	6.1783396693
0.004142724	-1.4430081227	6.1596293501
-0.8883839537	-1.4564225032	6.1980776155
-1.7807893578	-1.4407123062	6.1607458595

SCALARS	theta	float 1
LOOKUP_TABLE	default
299.971452504
300.015367155
299.974155013
299.9926511401
300.0323201762
299.9925152491
299.9746318395
300.0112962607
299.9745062742
305.1906857845
305.2100474569
305.1904277518
305.1994029372
305.2195866175
305.1995392526
305.1897799486
305.210276933
305.1897754927
310.8582378941
310.8612304184
310.8581723887
310.8572866737
310.8603209731
310.8572260659
310.8584245848
310.8612399437
310.8584615829

SCALARS	sig_11	float	1
LOOKUP_TABLE	default
13.1816401209
21.3580197269
13.9022892018
19.3732331
26.5744752209
19.0274479252
13.4811674256
20.3817030365
13.5416968435
-6.6691758674
-3.2956122681
-6.7213317186
-4.0194185649
-0.5336800375
-3.9993496599
-6.8706509
-3.3984019721
-6.8814054993
-12.7054556756
-12.5457449966
-12.6902628585
-12.8427279381
-12.6603557614
-12.8478629684
-12.6689080207
-12.5338537682
-12.6636330154

SCALARS	sig_22	float	1
LOOKUP_TABLE	default
8.5784164624
16.1900632287
9.1405931353
15.2786374987
21.4799389664
15.2718480742
9.9245166917
14.9612168981
9.9638531748
-5.6649338283
-3.3619127072
-5.7077705941
-2.9333438529
-0.4858876064
-2.9320306076
-5.7840210716
-3.2904754843
-5.7859674233
-9.1193445772
-8.9919213497
-9.1086542698
-9.3681886135
-9.2341118807
-9.3637256191
-9.0742665097
-9.0194801986
-9.0749966386

SCALARS	sig_33	float	1
LOOKUP_TABLE	default
21.3971340661
41.4939082882
21.7639971753
36.2444992166
55.6913233958
36.1165400705
21.9591798915
40.9289061538
21.9644637513
-9.0590345343
0.5678698155
-9.1016008706
-2.2799853903
7.5003166443
-2.2780414676
-9.126498179
0.6061583968
-9.1358868023
-36.8621363303
-36.3268351758
-36.8820063015
-37.6389124973
-36.9842762169
-37.6262277924
-36.869976787
-36.3133484966
-36.8536420655

SCALARS vonMises	float	1
LOOKUP_TABLE	default
54.9352517108
41.2349650897
54.5587856965
44.3970503809
28.9637237364
44.5892359471
54.4620046634
42.1110254498
54.5082812311
36.4659734758
33.2770212694
36.3915083303
34.7253298433
32.2773253534
34.7614458402
36.3709076665
33.4190119176
36.3773215888
38.0573585886
38.2575545108
38.1328994423
38.3563026346
38.509400647
38.3276377261
38.1829958368
38.206698965
38.1774309594
