# vtk DataFile Version 2.0
Results
ASCII
DATASET UNSTRUCTURED_GRID
POINTS         27           float
0.0	0.0	0.0	
50.0	0.0	0.0	
100.0	0.0	0.0	
0.0	40.0	0.0	
50.0	40.0	0.0	
100.0	40.0	0.0	
0.0	80.0	0.0	
50.0	80.0	0.0	
100.0	80.0	0.0	
0.0	0.0	70.0	
50.0	0.0	70.0	
100.0	0.0	70.0	
0.0	40.0	70.0	
50.0	40.0	70.0	
100.0	40.0	70.0	
0.0	80.0	70.0	
50.0	80.0	70.0	
100.0	80.0	70.0	
0.0	0.0	140.0	
50.0	0.0	140.0	
100.0	0.0	140.0	
0.0	40.0	140.0	
50.0	40.0	140.0	
100.0	40.0	140.0	
0.0	80.0	140.0	
50.0	80.0	140.0	
100.0	80.0	140.0	

CELLS	8	72
 8	0	1	4	3	9	10	13	12	
 8	1	2	5	4	10	11	14	13	
 8	4	5	8	7	13	14	17	16	
 8	3	4	7	6	12	13	16	15	
 8	9	10	13	12	18	19	22	21	
 8	10	11	14	13	19	20	23	22	
 8	13	14	17	16	22	23	26	25	
 8	12	13	16	15	21	22	25	24	

CELL_TYPES	8
 12
 12
 12
 12
 12
 12
 12
 12

POINT_DATA	27
VECTORS	u 	float 
0.0	0.0	0.0
-0.0112762566	0.0	0.0
-0.022129695	0.0	0.0
0.0	-0.0109922755	0.0
-0.0112861216	-0.0110225652	0.0
-0.022874663	-0.0108410355	0.0
0.0	-0.0211022898	0.0
-0.0114245944	-0.0227842331	0.0
-0.0227227516	-0.0209354368	0.0
-0.0321444794	-0.0280993885	-0.0073234558
-0.0112334075	-0.0268402887	0.0093924049
0.0095761033	-0.0278822994	-0.007315088
-0.0320859238	-0.0110533372	0.004345952
-0.0113270695	-0.0110048543	0.0211495517
0.0095059478	-0.0108713343	0.0043277469
-0.0322158436	0.0057875318	-0.0072587879
-0.0113859246	0.0050293239	0.0094422774
0.0094099873	0.0059705144	-0.0072782812
-0.0870249505	-0.0739800398	0.0572118054
-0.0112437891	-0.0741680095	0.0775711761
0.0645854947	-0.0738089391	0.0571879542
-0.0871914461	-0.0111342398	0.0709367699
-0.0113048981	-0.011014007	0.0915934259
0.06454698	-0.0109460446	0.0709340756
-0.087210045	0.051808337	0.0572398435
-0.0113840996	0.0520474483	0.0776453802
0.0644567012	0.0519919362	0.0572281922

VECTORS	v 	float 
0.0	0.0	0.0
7.27035e-05	0.0	0.0
0.0001487215	0.0	0.0
0.0	4.64821e-05	0.0
7.88993e-05	5.16697e-05	0.0
0.0001549018	4.62107e-05	0.0
0.0	9.62457e-05	0.0
7.08451e-05	0.000100954	0.0
0.0001440672	9.59587e-05	0.0
2.72849e-05	-5.6107e-06	9.37793e-05
7.64677e-05	2.8769e-06	7.52809e-05
0.0001246528	-4.373e-06	9.41183e-05
3.57437e-05	4.88766e-05	8.00421e-05
7.44383e-05	4.81517e-05	6.04953e-05
0.0001141924	4.99893e-05	7.98457e-05
2.68477e-05	0.0001024339	9.42069e-05
7.57994e-05	9.42383e-05	7.67375e-05
0.0001240896	0.0001033349	9.44761e-05
0.000238782	0.0001985325	7.16698e-05
7.53712e-05	0.0002086484	1.60006e-05
-8.77185e-05	0.0001994418	7.25294e-05
0.0002560991	4.72819e-05	2.45035e-05
7.56414e-05	4.82031e-05	-3.39694e-05
-0.0001052623	4.83619e-05	2.37869e-05
0.0002374552	-0.0001038408	7.29116e-05
7.44612e-05	-0.0001124606	1.64753e-05
-8.84139e-05	-0.0001025463	7.3693e-05

VECTORS	a 	float 
0.0	0.0	0.0
-0.8953342804	0.0	0.0
-1.7887031494	0.0	0.0
0.0	-0.7197592328	0.0
-0.8890522871	-0.7130004111	0.0
-1.7797671577	-0.7196430902	0.0
0.0	-1.4362551498	0.0
-0.8969098005	-1.4284372655	0.0
-1.7926987677	-1.4360230348	0.0
0.00159293	-0.0050041928	3.0753061268
-0.8914509311	0.0015274185	3.0837331331
-1.7851258048	-0.0038225147	3.0756520666
0.0057584183	-0.7162948485	3.0787374654
-0.8934409571	-0.717300007	3.0851854031
-1.7919937495	-0.7152464682	3.0784124088
0.0011034877	-1.4284640078	3.0757940565
-0.8921393015	-1.4353498216	3.0847072541
-1.7857440411	-1.4275499613	3.0760421273
0.0053552447	0.0029132773	6.1578550219
-0.8925407707	0.012702631	6.1793862684
-1.7902499493	0.0037256582	6.1585126632
0.0190305103	-0.7178591785	6.1704225457
-0.8922319679	-0.7168565334	6.1887844726
-1.8037433292	-0.7169231592	6.1697700418
0.0043095292	-1.4384414449	6.1588837316
-0.8932799208	-1.4466482319	6.1796966753
-1.7908375312	-1.4373841751	6.1594768038

SCALARS	theta	float 1
LOOKUP_TABLE	default
297.4071406646
297.4572810228
297.410019319
297.4274235245
297.472285744
297.4277566235
297.4115340211
297.4523995106
297.4115134623
304.3251136088
304.3885280809
304.3246400355
304.3553530237
304.4197616983
304.3553448533
304.3241788842
304.3892062276
304.3241690004
314.9500346823
315.0405855885
314.9499865759
314.9942028175
315.0848216649
314.9941248647
314.950407322
315.0406017794
314.9503547915

SCALARS	sig_11	float	1
LOOKUP_TABLE	default
13.2380606567
26.4084252442
14.3607736683
23.0885479582
34.7208478812
22.5665252326
13.7095889002
24.8408457019
13.782277827
-4.2497512923
1.5907870687
-4.3280672024
0.5721220185
6.5846402727
0.602977003
-4.5699911397
1.4251462393
-4.5854034318
-27.2797793956
-26.2787047142
-27.2573739736
-26.3648659213
-25.3248592844
-26.3721567857
-27.2214395992
-26.2585990479
-27.2136444691

SCALARS	sig_22	float	1
LOOKUP_TABLE	default
7.3009006578
19.5660352531
8.2014145197
17.9777306085
27.9992235199
17.9849394797
9.4334428022
17.6056670645
9.5010215903
-3.9589675721
0.0793801491
-4.0222141651
1.0792919024
5.3423443445
1.0829060662
-4.1494795981
0.1892443947
-4.1504239338
-20.3523172782
-19.581243654
-20.3373694965
-19.4199779183
-18.6349552357
-19.413383255
-20.2815727778
-19.6247006732
-20.2837114882

SCALARS	sig_33	float	1
LOOKUP_TABLE	default
23.2193203416
55.3949064489
23.8051917998
46.7010939675
77.8162544069
46.5058266542
24.115401317
54.4826956603
24.1137152902
-5.0085813173
12.5708078041
-5.0720321549
7.9694702007
25.7787116422
7.9723086105
-5.1156368954
12.6280975791
-5.1310631045
-75.3845498104
-70.2281735846
-75.4167166983
-72.1253803845
-66.7773034612
-72.1053047892
-75.3950025044
-70.2062901306
-75.3705937728

SCALARS vonMises	float	1
LOOKUP_TABLE	default
72.3078347132
54.438656025
71.7367188392
59.6637235032
41.3922287483
59.9513105881
71.6183682389
55.8369912506
71.7005522275
59.3471232871
54.9442720607
59.271365175
56.8485867606
53.8577016107
56.8813873743
59.2500075023
55.0412682106
59.2600255761
71.5605679808
70.1853422351
71.6772802763
70.8899550153
69.4884478274
70.8481193958
71.7584922261
70.1019975711
71.7477633066
