# vtk DataFile Version 2.0
Results
ASCII
DATASET UNSTRUCTURED_GRID
POINTS         27           float
0.0	0.0	0.0	
50.0	0.0	0.0	
100.0	0.0	0.0	
0.0	40.0	0.0	
50.0	40.0	0.0	
100.0	40.0	0.0	
0.0	80.0	0.0	
50.0	80.0	0.0	
100.0	80.0	0.0	
0.0	0.0	70.0	
50.0	0.0	70.0	
100.0	0.0	70.0	
0.0	40.0	70.0	
50.0	40.0	70.0	
100.0	40.0	70.0	
0.0	80.0	70.0	
50.0	80.0	70.0	
100.0	80.0	70.0	
0.0	0.0	140.0	
50.0	0.0	140.0	
100.0	0.0	140.0	
0.0	40.0	140.0	
50.0	40.0	140.0	
100.0	40.0	140.0	
0.0	80.0	140.0	
50.0	80.0	140.0	
100.0	80.0	140.0	

CELLS	8	72
 8	0	1	4	3	9	10	13	12	
 8	1	2	5	4	10	11	14	13	
 8	4	5	8	7	13	14	17	16	
 8	3	4	7	6	12	13	16	15	
 8	9	10	13	12	18	19	22	21	
 8	10	11	14	13	19	20	23	22	
 8	13	14	17	16	22	23	26	25	
 8	12	13	16	15	21	22	25	24	

CELL_TYPES	8
 12
 12
 12
 12
 12
 12
 12
 12

POINT_DATA	27
VECTORS	u 	float 
0.0	0.0	0.0
-0.0142483296	0.0	0.0
-0.0280825155	0.0	0.0
0.0	-0.0110043923	0.0
-0.0142873285	-0.0110347056	0.0
-0.028861386	-0.0107898168	0.0
0.0	-0.0208660723	0.0
-0.0144584949	-0.0230216204	0.0
-0.0288616078	-0.0205955662	0.0
-0.0205576407	-0.0139502716	-0.0222390734
-0.0142042411	-0.0117995351	-0.0003165456
-0.0079552828	-0.0136488546	-0.022238891
-0.0204962439	-0.0110873465	-0.0076690237
-0.0143269586	-0.0110141099	0.0142363271
-0.0080894463	-0.010832503	-0.007703605
-0.0206712364	-0.0084885678	-0.0221480196
-0.0144172848	-0.0099693088	-0.0002417108
-0.00818237	-0.0082343834	-0.0221797846
-0.1217707004	-0.1032636305	0.0392853495
-0.0142068048	-0.1026130623	0.0792392093
0.0934090552	-0.1030226955	0.0392458984
-0.1217093804	-0.0112001579	0.0686899676
-0.0142968211	-0.0110346571	0.1089117754
0.0930836872	-0.0109372322	0.0686767588
-0.1220247209	0.0809880354	0.0393339225
-0.0144039073	0.0804224423	0.0793451321
0.0932257919	0.0812444265	0.0393089209

VECTORS	v 	float 
0.0	0.0	0.0
-6.43934e-05	0.0	0.0
-0.0001271891	0.0	0.0
0.0	-9.80632e-05	0.0
-5.92225e-05	-9.00337e-05	0.0
-0.0001198245	-9.83519e-05	0.0
0.0	-0.0001966887	0.0
-6.42664e-05	-0.0001795923	0.0
-0.0001271998	-0.0001972437	0.0
-0.0002978907	-0.0003237715	0.0001258069
-6.12879e-05	-0.0003360225	8.54071e-05
0.0001749583	-0.000323914	0.0001263067
-0.0002942932	-9.32548e-05	0.0001101127
-6.24037e-05	-9.48831e-05	6.86819e-05
0.0001699876	-9.34381e-05	0.0001098162
-0.0002976537	0.0001373113	0.0001258773
-6.11178e-05	0.0001461643	8.54621e-05
0.0001751003	0.0001370281	0.0001262883
0.0003437595	0.0002921208	0.0002522735
-6.21901e-05	0.0002819009	4.0161e-06
-0.0004679961	0.0002918157	0.0002527667
0.0003548893	-9.4237e-05	4.049e-05
-6.15424e-05	-9.38559e-05	-0.0002101695
-0.0004782482	-9.45088e-05	4.01983e-05
0.0003439069	-0.0004807539	0.000252684
-6.19449e-05	-0.0004694753	3.678e-06
-0.0004676666	-0.0004809443	0.0002531206

VECTORS	a 	float 
0.0	0.0	0.0
-0.8965102515	0.0	0.0
-1.7923043529	0.0	0.0
0.0	-0.7174651685	0.0
-0.8936045561	-0.7146670989	0.0
-1.7878025267	-0.7175102231	0.0
0.0	-1.4337028912	0.0
-0.8972994859	-1.4301885529	0.0
-1.7940959006	-1.4337861611	0.0
-0.002779356	-0.0028592932	3.0796234605
-0.8947557659	-0.0001338454	3.0826906036
-1.7869811711	-0.0023885677	3.0797886695
-0.0010755647	-0.7160571412	3.0803188128
-0.8956486843	-0.7164650436	3.0825970912
-1.7899742634	-0.7156199071	3.0802202733
-0.0030133364	-1.4295891747	3.0798166283
-0.8950101507	-1.4325308143	3.0831320932
-1.7871851426	-1.4291884641	3.079947305
0.0040247063	0.002795592	6.1569624832
-0.8952651518	0.0073460326	6.1678379796
-1.7945142179	0.0031349496	6.1573177122
0.0098648167	-0.7167045207	6.1635888995
-0.8951201251	-0.7163066727	6.1729905015
-1.8001662997	-0.7163241679	6.163285062
0.0036150328	-1.4361461209	6.1573905235
-0.8955784503	-1.4400189717	6.167979094
-1.7947734095	-1.4357216919	6.1577171162

SCALARS	theta	float 1
LOOKUP_TABLE	default
297.7223069022
297.7023163211
297.7196769705
297.6976042475
297.6730882169
297.7008042808
297.7280332994
297.6978745098
297.7259964
300.6631687515
300.8018711273
300.6626749766
300.7725537477
300.9112251443
300.7715806878
300.6625700712
300.803608022
300.6629123627
321.5126156079
321.8523784907
321.5130164662
321.7716457685
322.1120282514
321.7720852038
321.5131415417
321.8519036421
321.5128527576

SCALARS	sig_11	float	1
LOOKUP_TABLE	default
-16.9092762767
1.2882125476
-15.6126971263
-4.1919318268
12.1595918882
-4.6748492593
-16.3616284715
-0.7895215217
-16.4091833475
21.4428505259
32.6519978787
21.3618407057
30.7765649704
42.1754333281
30.8063141068
21.0259622184
32.4299560071
21.0172791695
-68.059530011
-61.0359105506
-68.0427169572
-61.3342474732
-54.2543541366
-61.3411523965
-67.9823232137
-61.0040878572
-67.9791366624

SCALARS	sig_22	float	1
LOOKUP_TABLE	default
-18.4419586353
-1.5435870693
-17.2244655221
-4.6515178084
9.3589773293
-4.4953760797
-15.7097032841
-4.101564321
-15.5621364918
16.4583619311
24.282762502
16.4008758668
26.1877489864
34.2794823813
26.2012543593
16.2096558025
24.4192895289
16.2243645793
-52.9226754305
-47.9168721175
-52.9162005574
-45.6968283519
-40.6685765518
-45.6932975879
-52.8312445869
-47.9691308286
-52.8420853869

SCALARS	sig_33	float	1
LOOKUP_TABLE	default
-17.7209677891
25.490234849
-16.9698199712
12.0306936689
53.7989838873
11.8472425476
-16.5795525625
24.2856566937
-16.6136323699
33.9458423071
68.0380514552
33.8763226587
60.5231379291
94.8430687357
60.5207076382
33.8104608274
68.1067630612
33.7890717338
-172.1848462791
-144.6463781074
-172.2346326383
-148.1141997318
-120.331682396
-148.0901146682
-172.1915523399
-144.6126593852
-172.168937126

SCALARS vonMises	float	1
LOOKUP_TABLE	default
31.8982934882
28.0770504588
31.4621149529
33.0898155057
37.4859780792
33.3748902354
32.0273165039
30.0386898763
32.2385318051
106.0472567438
99.4595378759
106.3992433242
97.8141968828
88.0908406488
97.7619658513
106.6108969596
99.0069795289
106.5969254292
142.1768973941
132.084365318
142.3106197554
136.1170251746
126.5915412564
136.0828864741
142.4258240982
131.9691904292
142.4007857607
