# vtk DataFile Version 2.0
Results
ASCII
DATASET UNSTRUCTURED_GRID
POINTS         27           float
0.0	0.0	0.0	
50.0	0.0	0.0	
100.0	0.0	0.0	
0.0	40.0	0.0	
50.0	40.0	0.0	
100.0	40.0	0.0	
0.0	80.0	0.0	
50.0	80.0	0.0	
100.0	80.0	0.0	
0.0	0.0	70.0	
50.0	0.0	70.0	
100.0	0.0	70.0	
0.0	40.0	70.0	
50.0	40.0	70.0	
100.0	40.0	70.0	
0.0	80.0	70.0	
50.0	80.0	70.0	
100.0	80.0	70.0	
0.0	0.0	140.0	
50.0	0.0	140.0	
100.0	0.0	140.0	
0.0	40.0	140.0	
50.0	40.0	140.0	
100.0	40.0	140.0	
0.0	80.0	140.0	
50.0	80.0	140.0	
100.0	80.0	140.0	

CELLS	8	72
 8	0	1	4	3	9	10	13	12	
 8	1	2	5	4	10	11	14	13	
 8	4	5	8	7	13	14	17	16	
 8	3	4	7	6	12	13	16	15	
 8	9	10	13	12	18	19	22	21	
 8	10	11	14	13	19	20	23	22	
 8	13	14	17	16	22	23	26	25	
 8	12	13	16	15	21	22	25	24	

CELL_TYPES	8
 12
 12
 12
 12
 12
 12
 12
 12

POINT_DATA	27
VECTORS	u 	float 
0.0	0.0	0.0
-0.0129233051	0.0	0.0
-0.0254077275	0.0	0.0
0.0	-0.0121631331	0.0
-0.0129358896	-0.0121951007	0.0
-0.0261850357	-0.0120015536	0.0
0.0	-0.0233907486	0.0
-0.0130820136	-0.0251733169	0.0
-0.0260372344	-0.0232097645	0.0
-0.0322328594	-0.0277919267	-0.0103172106
-0.0128788087	-0.0264301064	0.0074759719
0.006369347	-0.0275602034	-0.0103091229
-0.0321614174	-0.0122286083	0.0020400778
-0.0129782054	-0.012176341	0.0199174932
0.0062816479	-0.0120342574	0.0020200311
-0.0323102399	0.0031173165	-0.0102478407
-0.0130416474	0.0022884563	0.0075300362
0.0061925748	0.0033125068	-0.0102688972
-0.093400295	-0.0793462572	0.054904638
-0.0128890436	-0.0795040087	0.0778330223
0.0676725507	-0.0791634507	0.0548787073
-0.0935360298	-0.0123152803	0.0705769168
-0.0129546331	-0.0121870793	0.0938126546
0.0675908951	-0.0121143488	0.070573352
-0.0935976646	0.0548182982	0.0549358203
-0.0130389287	0.0550315732	0.0779128708
0.0675348453	0.0550142994	0.054922711

VECTORS	v 	float 
0.0	0.0	0.0
6.26683e-05	0.0	0.0
0.0001288579	0.0	0.0
0.0	3.48752e-05	0.0
6.92492e-05	4.02754e-05	0.0
0.0001354342	3.45845e-05	0.0
0.0	7.30953e-05	0.0
6.08152e-05	7.81112e-05	0.0
0.0001241615	7.2748e-05	0.0
-2.0777e-06	-3.62346e-05	9.84765e-05
6.66312e-05	-2.76887e-05	7.93726e-05
0.0001342992	-3.50259e-05	9.88328e-05
6.8795e-06	3.73772e-05	8.51548e-05
6.4524e-05	3.65883e-05	6.52052e-05
0.0001232737	3.846e-05	8.49656e-05
-2.4766e-06	0.000110041	9.89018e-05
6.59882e-05	0.0001016897	8.08338e-05
0.0001337572	0.0001109131	9.91789e-05
0.000256509	0.0002130326	8.81699e-05
6.54452e-05	0.0002236209	1.49856e-05
-0.0001252801	0.0002138671	8.90438e-05
0.0002749711	3.57548e-05	2.59275e-05
6.57865e-05	3.66708e-05	-4.98401e-05
-0.0001438665	3.67615e-05	2.52183e-05
0.0002552453	-0.000141388	8.9408e-05
6.46053e-05	-0.0001505023	1.54608e-05
-0.0001259015	-0.0001401658	9.02005e-05

VECTORS	a 	float 
0.0	0.0	0.0
-0.8958603587	0.0	0.0
-1.7901288353	0.0	0.0
0.0	-0.7192159961	0.0
-0.8903433734	-0.7131983343	0.0
-1.7820339352	-0.719112138	0.0
0.0	-1.4356698892	0.0
-0.897222462	-1.4284494524	0.0
-1.7935505553	-1.4354631767	0.0
0.0001860944	-0.0042948632	3.0765147293
-0.8924526252	0.0013606313	3.0834931247
-1.785610051	-0.0032795342	3.0768210611
0.003714529	-0.7161148318	3.0791921274
-0.8941872429	-0.7170110935	3.0843455705
-1.7915545399	-0.7152121406	3.0788994073
-0.0002444856	-1.4286788668	3.0769324216
-0.8930436026	-1.4347286054	3.0843244886
-1.7861395219	-1.4278892829	3.0771552797
0.0049570836	0.0027868693	6.1572603721
-0.8934031128	0.0117488186	6.1769783124
-1.791615387	0.0034897728	6.1578341013
0.0170275067	-0.7174768933	6.1689601716
-0.8931303812	-0.716605038	6.1858027958
-1.803489268	-0.7166707437	6.168387116
0.0040633937	-1.4375828732	6.1581426057
-0.894040696	-1.4451504155	6.1772386682
-1.7921249294	-1.4366753569	6.158660486

SCALARS	theta	float 1
LOOKUP_TABLE	default
297.1492982021
297.1949690573
297.1518131699
297.1657935928
297.2063303205
297.1663989314
297.1537523221
297.1902003175
297.1536891453
303.9458885722
304.0247845625
303.9453749559
303.984933263
304.0647563327
303.9848322526
303.9450292378
304.0255745131
303.9450231545
315.8993884439
316.0276809183
315.8993798182
315.9654918283
316.0938797436
315.9654466255
315.8997798861
316.0276745408
315.8997080901

SCALARS	sig_11	float	1
LOOKUP_TABLE	default
10.949959866
25.0239492445
12.1310432341
21.4197289306
33.8682654717
20.8789825867
11.4483446753
23.3537251398
11.5145951606
-1.9553249152
4.4781822114
-2.0367044378
3.4235930749
10.0372604211
3.4557580167
-2.2956066429
4.3016588811
-2.3110621613
-31.9153586721
-30.5055259836
-31.8925362908
-30.4809606496
-29.0289401253
-30.4884822739
-31.8531434679
-30.4837034593
-31.8454104982

SCALARS	sig_22	float	1
LOOKUP_TABLE	default
5.1984160579
18.3080754084
6.1584954499
16.5488848809
27.2758183819
16.5663397801
7.4612600552
16.2238219877
7.5365635328
-2.1684273445
2.2975965902
-2.2335621437
3.4667558364
8.1696096777
3.471336238
-2.3711157925
2.4134781569
-2.3708998049
-24.0320736709
-22.9559281478
-24.017255514
-22.5109932308
-21.4191310756
-22.5043381827
-23.9569787449
-23.0018035052
-23.9599163993

SCALARS	sig_33	float	1
LOOKUP_TABLE	default
20.295805398
54.6087314958
20.9182325449
45.2067186127
78.3851518317
45.00372757
21.2482464234
53.6358194928
21.2429252431
-1.5277040364
18.1166907017
-1.5936825081
13.1630716253
33.0463923036
13.1658764505
-1.6413334166
18.1767565842
-1.6577240254
-86.9903239086
-79.7234800127
-87.0251173079
-81.7072718901
-74.2365163959
-81.6861187355
-87.0005302358
-79.6999334271
-86.9755010163

SCALARS vonMises	float	1
LOOKUP_TABLE	default
70.8226293262
53.4619846917
70.229668489
59.0682201572
42.2082642096
59.3654573062
70.1244778561
54.9537522542
70.2162736776
64.0274627792
59.8196104551
63.9725307778
61.5496552557
58.5379273124
61.5733427126
63.9581208235
59.8618907074
63.9686854325
80.6144673709
78.4524374146
80.7369652937
79.4341990406
77.2805714753
79.3915460956
80.8237943439
78.3631478511
80.8115881441
