# vtk DataFile Version 2.0
Results
ASCII
DATASET UNSTRUCTURED_GRID
POINTS         27           float
0.0	0.0	0.0	
50.0	0.0	0.0	
100.0	0.0	0.0	
0.0	40.0	0.0	
50.0	40.0	0.0	
100.0	40.0	0.0	
0.0	80.0	0.0	
50.0	80.0	0.0	
100.0	80.0	0.0	
0.0	0.0	70.0	
50.0	0.0	70.0	
100.0	0.0	70.0	
0.0	40.0	70.0	
50.0	40.0	70.0	
100.0	40.0	70.0	
0.0	80.0	70.0	
50.0	80.0	70.0	
100.0	80.0	70.0	
0.0	0.0	140.0	
50.0	0.0	140.0	
100.0	0.0	140.0	
0.0	40.0	140.0	
50.0	40.0	140.0	
100.0	40.0	140.0	
0.0	80.0	140.0	
50.0	80.0	140.0	
100.0	80.0	140.0	

CELLS	8	72
 8	0	1	4	3	9	10	13	12	
 8	1	2	5	4	10	11	14	13	
 8	4	5	8	7	13	14	17	16	
 8	3	4	7	6	12	13	16	15	
 8	9	10	13	12	18	19	22	21	
 8	10	11	14	13	19	20	23	22	
 8	13	14	17	16	22	23	26	25	
 8	12	13	16	15	21	22	25	24	

CELL_TYPES	8
 12
 12
 12
 12
 12
 12
 12
 12

POINT_DATA	27
VECTORS	u 	float 
0.0	0.0	0.0
-0.0086175609	0.0	0.0
-0.0169503182	0.0	0.0
0.0	-0.0035470628	0.0
-0.0086955804	-0.0035723506	0.0
-0.0175772809	-0.0032800108	0.0
0.0	-0.0058116131	0.0
-0.0088784075	-0.0082061311	0.0
-0.0178443921	-0.0054349176	0.0
-0.0009945432	0.0070814668	-0.0277467469
-0.0085838256	0.0105023746	-0.0039523352
-0.0162505309	0.007445898	-0.0277615855
-0.0010720161	-0.0036450459	-0.012665894
-0.0087232224	-0.0035499097	0.0108788434
-0.0163339214	-0.0033317768	-0.0127223851
-0.0011484769	-0.0146696567	-0.0276378697
-0.0088442941	-0.0173076381	-0.0038563525
-0.0165257287	-0.0143584504	-0.0276837172
-0.1379659716	-0.1174433063	0.0250117396
-0.0085695514	-0.1148097926	0.0801707292
0.120869133	-0.1171443536	0.0249549684
-0.1377880282	-0.0037810563	0.0674762766
-0.008686096	-0.003580758	0.1227233991
0.1203967796	-0.0034593693	0.0674476001
-0.138271026	0.1100228807	0.0250786003
-0.0088124094	0.1075083312	0.0802985796
0.1206410451	0.1103356633	0.0250361836

VECTORS	v 	float 
0.0	0.0	0.0
-0.0002101687	0.0	0.0
-0.0004124865	0.0	0.0
0.0	-0.0002582841	0.0
-0.0002044898	-0.0002620948	0.0
-0.0004149453	-0.0002613774	0.0
0.0	-0.0005182471	0.0
-0.0002115012	-0.0005223392	0.0
-0.0004144595	-0.0005244944	0.0
-0.0006249877	-0.0006675605	0.000107764
-0.0002076243	-0.0007026087	8.33863e-05
0.0002076717	-0.0006688914	0.000108493
-0.0006124729	-0.0002608173	0.0001081034
-0.0002086193	-0.000260694	9.59867e-05
0.0001970314	-0.0002618906	0.0001097468
-0.0006241826	0.000146319	0.0001076561
-0.0002062188	0.0001804218	8.40799e-05
0.000209452	0.00014542	0.000108248
0.0004021141	0.0003605893	0.0003892073
-0.0002093541	0.0002909079	-1.4022e-06
-0.0008204167	0.0003591743	0.0003911119
0.0004054413	-0.0002604552	4.28987e-05
-0.0002083181	-0.0002615032	-0.0003391786
-0.000822488	-0.0002618111	4.30074e-05
0.0004032191	-0.000881918	0.00038941
-0.0002084093	-0.0008132961	-1.2838e-06
-0.0008194998	-0.0008831162	0.0003912146

VECTORS	a 	float 
0.0	0.0	0.0
-0.8955512392	0.0	0.0
-1.7904163584	0.0	0.0
0.0	-0.7169048771	0.0
-0.8938323067	-0.715974466	0.0
-1.7882186569	-0.7170788724	0.0
0.0	-1.4330605846	0.0
-0.8961996849	-1.4324201171	0.0
-1.7917634908	-1.4333906545	0.0
-0.0020406884	-0.0031629842	3.0800275257
-0.8945621713	-0.0016497118	3.0822931405
-1.7873124142	-0.0028958094	3.0801243073
-0.0007971836	-0.7165449274	3.0804974123
-0.8951071345	-0.7166626307	3.082793677
-1.7892081782	-0.716276395	3.0805398008
-0.0021901302	-1.430134649	3.0801419628
-0.8946792523	-1.431535045	3.0826422643
-1.7873734675	-1.4298726317	3.0802229431
0.0041446625	0.0032757871	6.1589467341
-0.8948975968	0.0045757827	6.1633522313
-1.7939164877	0.0034724542	6.1592482197
0.0067200937	-0.7168790841	6.1612388364
-0.8948166001	-0.7166955265	6.165085095
-1.7963834291	-0.7166590752	6.1610531391
0.0039022858	-1.4370057429	6.1592262655
-0.8950938698	-1.4379831382	6.1634787316
-1.7940823466	-1.4367554137	6.1595087189

SCALARS	theta	float 1
LOOKUP_TABLE	default
299.8989682449
299.7757074383
299.8895316337
299.8321987954
299.703943707
299.8354590022
299.9036589113
299.7747265391
299.9003432349
297.1767319167
297.1988663432
297.176995949
297.2790371772
297.2996094692
297.2776873241
297.175792605
297.2018731237
297.1766523948
326.4551760528
326.6674627882
326.4556652744
326.7525223307
326.9655866525
326.7533736559
326.4566330186
326.6655642447
326.4559102808

SCALARS	sig_11	float	1
LOOKUP_TABLE	default
-52.9761632659
-30.9685324849
-51.7516016715
-38.9076269085
-18.7811321787
-39.1436128844
-52.4115247727
-33.40198848
-52.6852184579
46.7046079927
65.9191415257
46.6319241462
62.0745223671
81.4461636316
62.0887619156
46.2425685585
65.6553048467
46.2457509892
-110.186521699
-90.7833710727
-110.1793986396
-93.4821845309
-74.0067511036
-93.4841336456
-110.1043079836
-90.7352415139
-110.1086707334

SCALARS	sig_22	float	1
LOOKUP_TABLE	default
-48.3327340955
-28.1442112713
-46.9092339187
-33.069618191
-16.0996438893
-32.6369534528
-45.2671269653
-31.0731411752
-45.0407627839
36.6587151647
49.9850968145
36.6176809962
52.4499470886
66.0370979494
52.4733662324
36.3837575376
50.1317231043
36.4185665355
-86.77827188
-73.1782522118
-86.7839811319
-69.2155395408
-55.588607792
-69.2164648232
-86.6792534713
-73.2286255854
-86.7009874956

SCALARS	sig_33	float	1
LOOKUP_TABLE	default
-67.5867494132
-18.3440187444
-66.7739865935
-35.9156894944
11.5856795324
-35.9760526444
-66.2978439132
-19.7599462243
-66.4020856658
73.5939876161
124.2741288125
73.5170440915
113.5772183538
164.3892637277
113.5579877881
73.4572824658
124.3430951128
73.4252871976
-260.9452558488
-205.8349261637
-261.0056420302
-212.2733931325
-156.9081821569
-212.2425838882
-260.9510454934
-205.7875446843
-260.9343757136

SCALARS vonMises	float	1
LOOKUP_TABLE	default
44.2551442195
46.979216167
45.1290349086
33.5677872275
40.7545971563
33.6223205766
46.7497623946
46.4632369842
46.7123477146
175.0891090634
152.6275982422
175.534960697
147.6302712693
119.0110144417
147.5930291407
175.8747407569
151.8139226297
175.7996804343
201.199736622
180.6855749774
201.3240478729
189.031833093
169.9020916738
189.0142696642
201.4753002564
180.5499840408
201.4297488517
