# vtk DataFile Version 2.0
Results
ASCII
DATASET UNSTRUCTURED_GRID
POINTS         27           float
0.0	0.0	0.0	
50.0	0.0	0.0	
100.0	0.0	0.0	
0.0	40.0	0.0	
50.0	40.0	0.0	
100.0	40.0	0.0	
0.0	80.0	0.0	
50.0	80.0	0.0	
100.0	80.0	0.0	
0.0	0.0	70.0	
50.0	0.0	70.0	
100.0	0.0	70.0	
0.0	40.0	70.0	
50.0	40.0	70.0	
100.0	40.0	70.0	
0.0	80.0	70.0	
50.0	80.0	70.0	
100.0	80.0	70.0	
0.0	0.0	140.0	
50.0	0.0	140.0	
100.0	0.0	140.0	
0.0	40.0	140.0	
50.0	40.0	140.0	
100.0	40.0	140.0	
0.0	80.0	140.0	
50.0	80.0	140.0	
100.0	80.0	140.0	

CELLS	8	72
 8	0	1	4	3	9	10	13	12	
 8	1	2	5	4	10	11	14	13	
 8	4	5	8	7	13	14	17	16	
 8	3	4	7	6	12	13	16	15	
 8	9	10	13	12	18	19	22	21	
 8	10	11	14	13	19	20	23	22	
 8	13	14	17	16	22	23	26	25	
 8	12	13	16	15	21	22	25	24	

CELL_TYPES	8
 12
 12
 12
 12
 12
 12
 12
 12

POINT_DATA	27
VECTORS	u 	float 
0.0	0.0	0.0
-0.0138830072	0.0	0.0
-0.0273191093	0.0	0.0
0.0	-0.0127564659	0.0
-0.0138985663	-0.0127895432	0.0
-0.0281154051	-0.0125871706	0.0
0.0	-0.0245402262	0.0
-0.0140493914	-0.0263928484	0.0
-0.0279743855	-0.0243480176	0.0
-0.0317849104	-0.0270314394	-0.0124661605
-0.0138378912	-0.0255865458	0.006091341
0.0040008524	-0.0267889738	-0.0124585003
-0.0317041939	-0.0128251991	0.0003622555
-0.013941249	-0.0127699981	0.0189986262
0.0038993927	-0.0126217384	0.0003406431
-0.0318670055	0.0011551654	-0.0123933584
-0.0140083348	0.0002661952	0.0061485306
0.0038163091	0.0013593137	-0.0124156487
-0.0981087068	-0.083302914	0.0529711532
-0.0138477081	-0.083421108	0.0780383818
0.0704649454	-0.0831114501	0.0529435806
-0.0982155711	-0.012916032	0.0702964712
-0.0139167298	-0.0127820332	0.0956754912
0.070345721	-0.0127057155	0.0702920582
-0.0983150054	0.0575774881	0.0530047812
-0.0140046715	0.0577547355	0.0781223502
0.07032059	0.0577826387	0.0529904345

VECTORS	v 	float 
0.0	0.0	0.0
5.14518e-05	0.0	0.0
0.0001067375	0.0	0.0
0.0	2.26886e-05	0.0
5.92109e-05	2.85368e-05	0.0
0.000115106	2.23501e-05	0.0
0.0	4.88205e-05	0.0
4.95731e-05	5.45589e-05	0.0
0.0001019384	4.83553e-05	0.0
-3.04659e-05	-6.57094e-05	0.0001019287
5.60988e-05	-5.73749e-05	8.23793e-05
0.0001415568	-6.4527e-05	0.0001022727
-2.14479e-05	2.54375e-05	8.83803e-05
5.37493e-05	2.45474e-05	6.8218e-05
0.0001301124	2.64965e-05	8.82509e-05
-3.08288e-05	0.0001156111	0.0001023482
5.54831e-05	0.0001073105	8.38675e-05
0.000141042	0.0001164646	0.0001026039
0.0002696851	0.0002238582	0.0001038218
5.47079e-05	0.0002346123	1.45775e-05
-0.0001599075	0.0002246274	0.0001046899
0.0002892396	2.37541e-05	2.66316e-05
5.51742e-05	2.46793e-05	-6.4972e-05
-0.0001793846	2.46962e-05	2.59689e-05
0.0002684743	-0.0001762035	0.0001050501
5.39267e-05	-0.0001854839	1.50768e-05
-0.0001604669	-0.0001750455	0.0001058343

VECTORS	a 	float 
0.0	0.0	0.0
-0.8962244417	0.0	0.0
-1.791115583	0.0	0.0
0.0	-0.7188398308	0.0
-0.8912372514	-0.713335407	0.0
-1.7836033505	-0.7187444758	0.0
0.0	-1.4352645339	0.0
-0.8974388015	-1.4284579877	0.0
-1.7941400204	-1.4350753981	0.0
-0.0007878304	-0.003803787	3.0773512725
-0.8931460838	0.0012452134	3.0833268994
-1.7859453001	-0.0029036143	3.0776301714
0.0022996036	-0.7159902037	3.0795069489
-0.8947038497	-0.7168110543	3.0837643545
-1.7912504355	-0.7151883667	3.0792366238
-0.0011776576	-1.4288276226	3.0777203354
-0.8936696421	-1.4342985337	3.084059454
-1.7864133273	-1.4281241978	3.0779257285
0.0046812621	0.0026992433	6.1568485726
-0.8940000768	0.011088482	6.1753113079
-1.7925604169	0.0033263587	6.1573642124
0.0156409231	-0.7172122385	6.1679478488
-0.8937523267	-0.7164309225	6.1837387154
-1.8033134394	-0.716495991	6.1674297931
0.0038928016	-1.436988351	6.1576294253
-0.8945673494	-1.4441134655	6.1755370163
-1.7930159271	-1.4361845009	6.1580952523

SCALARS	theta	float 1
LOOKUP_TABLE	default
297.0320655526
297.0725916228
297.0341840483
297.0446536844
297.0802040422
297.045519124
297.0365585639
297.0679363428
297.0364143798
303.5972356741
303.6888686774
303.5966933737
303.6443290171
303.7368097309
303.6441395668
303.5964457515
303.6897503849
303.5964473931
316.6573538779
316.8186131227
316.6573880815
316.7441092238
316.9054986349
316.7441013512
316.6577525819
316.8185816183
316.6576671136

SCALARS	sig_11	float	1
LOOKUP_TABLE	default
8.5172324236
23.2508995075
9.7355201879
19.421076581
32.4713651674
18.8716246194
9.0330337644
21.5077070195
9.0915675238
0.3189958438
7.248770464
0.235952587
6.1598671484
13.2748082807
6.1927345962
-0.0354257137
7.064523192
-0.0506293298
-35.9579265648
-34.1381426808
-35.9351210218
-34.0324737233
-32.1681325719
-34.0401199963
-35.8929034184
-34.1150156481
-35.8854042762

SCALARS	sig_22	float	1
LOOKUP_TABLE	default
3.0453573518
16.771398806
4.0483925923
14.8672653902
26.1134717827
14.8951922962
5.3987943123
14.6000081813
5.4810404217
-0.3803742898
4.443594813
-0.4462503567
5.7479164587
10.8166893625
5.7534098474
-0.5916683325
4.5636187045
-0.5902446823
-27.2559685827
-25.8792808967
-27.2415634492
-25.1823800338
-23.7886643068
-25.175817369
-27.1777815629
-25.9267703464
-27.1814930051

SCALARS	sig_33	float	1
LOOKUP_TABLE	default
17.083633934
52.9339137281
17.7314808137
42.9824625157
77.6447359908
42.7755514505
18.0751724271
51.9179974785
18.0666793649
1.9070911577
23.2716091512
1.8396461886
18.0358783918
39.6441669594
18.0385641811
1.7888699905
23.3335660321
1.7718035358
-96.9565399738
-87.7116531048
-96.9934018969
-89.7743593647
-80.3171375676
-89.7525319057
-96.9663538336
-87.6868441672
-96.9411385689

SCALARS vonMises	float	1
LOOKUP_TABLE	default
68.2277120492
51.676125061
67.6252865401
57.5462846878
42.3602490256
57.8471194642
67.5385753313
53.2370817853
67.6391979834
67.8010644135
63.9002274228
67.7738524226
65.3774391611
62.2678246676
65.3914931988
67.7699096135
63.8857899164
67.7807096256
88.1870906403
85.274928672
88.313077571
86.5208819514
83.65736293
86.4783199325
88.4041304964
85.1813823998
88.3904832844
