# vtk DataFile Version 2.0
Results
ASCII
DATASET UNSTRUCTURED_GRID
POINTS         27           float
0.0	0.0	0.0	
50.0	0.0	0.0	
100.0	0.0	0.0	
0.0	40.0	0.0	
50.0	40.0	0.0	
100.0	40.0	0.0	
0.0	80.0	0.0	
50.0	80.0	0.0	
100.0	80.0	0.0	
0.0	0.0	70.0	
50.0	0.0	70.0	
100.0	0.0	70.0	
0.0	40.0	70.0	
50.0	40.0	70.0	
100.0	40.0	70.0	
0.0	80.0	70.0	
50.0	80.0	70.0	
100.0	80.0	70.0	
0.0	0.0	140.0	
50.0	0.0	140.0	
100.0	0.0	140.0	
0.0	40.0	140.0	
50.0	40.0	140.0	
100.0	40.0	140.0	
0.0	80.0	140.0	
50.0	80.0	140.0	
100.0	80.0	140.0	

CELLS	8	72
 8	0	1	4	3	9	10	13	12	
 8	1	2	5	4	10	11	14	13	
 8	4	5	8	7	13	14	17	16	
 8	3	4	7	6	12	13	16	15	
 8	9	10	13	12	18	19	22	21	
 8	10	11	14	13	19	20	23	22	
 8	13	14	17	16	22	23	26	25	
 8	12	13	16	15	21	22	25	24	

CELL_TYPES	8
 12
 12
 12
 12
 12
 12
 12
 12

POINT_DATA	27
VECTORS	u 	float 
0.0	0.0	0.0
0.0040199892	0.0	0.0
0.0080958337	0.0	0.0
0.0	0.0083798117	0.0
0.003932455	0.0083281561	0.0
0.0078283209	0.008603822	0.0
0.0	0.0176938268	0.0
0.0037899743	0.0159018607	0.0
0.0073861291	0.018054661	0.0
0.021317814	0.0272796557	-0.0239267922
0.004031189	0.0311347359	-0.0082985062
-0.0132764339	0.0275821831	-0.0239556603
0.0214055775	0.0082738391	-0.0145988764
0.0039217804	0.0083661616	0.0005190562
-0.0135591371	0.008542236	-0.0146634787
0.021175156	-0.0109525386	-0.0238433863
0.0038119349	-0.0141828199	-0.0081992664
-0.0135091588	-0.0106879993	-0.0238889458
-0.0945510599	-0.0812061067	-0.0056186642
0.0040612119	-0.0766059081	0.0411450805
0.1026903196	-0.0809469321	-0.0056756981
-0.0937266947	0.0081628239	0.0317973429
0.0039573925	0.0083266145	0.0783187799
0.1016389672	0.0084344089	0.0317600591
-0.0948059632	0.097635396	-0.0055471626
0.0038530784	0.0931538711	0.0412503784
0.1024959655	0.0978987104	-0.0055962341

VECTORS	v 	float 
0.0	0.0	0.0
-0.0023108325	0.0	0.0
-0.0046184929	0.0	0.0
0.0	-0.0018079372	0.0
-0.0023063751	-0.0018013821	0.0
-0.0046148971	-0.0018050592	0.0
0.0	-0.0036011465	0.0
-0.0023143814	-0.0036148094	0.0
-0.0046297074	-0.0035969486	0.0
4.55125e-05	0.0001305694	0.0074110481
-0.0023073099	0.0001678275	0.007652164
-0.0046611167	0.0001349757	0.0074111806
4.34136e-05	-0.0018052646	0.0075599676
-0.0023101908	-0.0018053231	0.0077961771
-0.004663155	-0.0018014661	0.0075590123
4.36121e-05	-0.0037445916	0.0074124737
-0.0023103629	-0.0037750712	0.0076536375
-0.0046642585	-0.0037409114	0.0074122624
-0.001418456	-0.0012087306	0.0156024751
-0.0023079129	-0.0011743998	0.0162036816
-0.0031969135	-0.0012049935	0.0156023956
-0.0014115944	-0.0018079351	0.0160668996
-0.0023088746	-0.0018051051	0.0166654299
-0.0032064187	-0.0018038897	0.0160660218
-0.0014223856	-0.0024056512	0.0156038623
-0.0023110362	-0.0024373264	0.0162050028
-0.0031997927	-0.002401616	0.0156038943

VECTORS	a 	float 
0.0	0.0	0.0
-0.5333241963	0.0	0.0
-1.0664203036	0.0	0.0
0.0	-0.4270655881	0.0
-0.5327048284	-0.4264735639	0.0
-1.0656011902	-0.4270726568	0.0
0.0	-0.853829366	0.0
-0.5334828715	-0.8531699131	0.0
-1.0668120879	-0.8538403731	0.0
-0.0028054177	-0.0030873679	1.8334205497
-0.5329452967	-0.0026457994	1.8339748059
-1.0631560371	-0.0029801597	1.8334505872
-0.0025121389	-0.4267693877	1.8335187704
-0.5331391843	-0.4268579168	1.8340091241
-1.0636932886	-0.4266743975	1.8334982174
-0.002848872	-0.8505334214	1.8334515861
-0.5330038519	-0.8509989185	1.8340876298
-1.0632048038	-0.8504530257	1.8334782075
0.0046898725	0.0038535821	3.6643583609
-0.5330564737	0.0043728675	3.6649048231
-1.0707838093	0.0039188115	3.6644297578
0.0056942586	-0.4269113318	3.6639888959
-0.5330221351	-0.4268267143	3.664340908
-1.0717656465	-0.4268327233	3.663925395
0.0045932498	-0.8576648669	3.6644554122
-0.5331211436	-0.858042809	3.6649351691
-1.0708308802	-0.85757139	3.6645247751

SCALARS	theta	float 1
LOOKUP_TABLE	default
302.768420363
302.500714414
302.754098383
302.661182403
302.4280885608
302.6574585662
302.7395525673
302.5338057452
302.7430161216
295.0485048377
294.7046405973
295.0507601668
294.8200335478
294.4714367597
294.8204707568
295.0552327509
294.7007846601
295.0547181987
321.04324038
320.5275883508
321.0431333247
320.6638027203
320.1480898826
320.6635234469
321.0413160767
320.5281597017
321.0414690776

SCALARS	sig_11	float	1
LOOKUP_TABLE	default
-72.9075519299
-53.4333142557
-72.1534124267
-61.3269343298
-43.6112405962
-61.1685358992
-72.1755512379
-55.7474178297
-72.6675785762
49.3279292939
73.9895911959
49.2754513737
70.838285288
95.5123735481
70.8232164323
48.9529424564
73.7941538326
48.9716841884
-118.9417646077
-85.6268895821
-118.9436434222
-87.614163691
-54.2254662258
-87.6007238984
-118.8543087562
-85.5955269022
-118.8725281537

SCALARS	sig_22	float	1
LOOKUP_TABLE	default
-63.3989345159
-45.8765745642
-62.2282990333
-50.8068453947
-36.1344279584
-50.1491808276
-60.767234123
-48.4427281956
-60.6025702297
38.3309180962
55.9992193308
38.3087881356
60.4973565892
78.2724736015
60.5157246437
38.0995405809
56.1271269535
38.1471871062
-96.2370551363
-71.8267391042
-96.2530074485
-63.3747374581
-38.9282918597
-63.3701572899
-96.1429783892
-71.8747351831
-96.1781583635

SCALARS	sig_33	float	1
LOOKUP_TABLE	default
-109.5270128936
-72.1985580648
-108.9043169589
-87.0217495483
-51.6765168778
-86.8597714864
-108.179505055
-73.6807263586
-108.4100573981
67.9576681612
119.2750319832
67.878809705
111.4179679919
162.6424008637
111.3747410592
67.8462643504
119.3436343668
67.814197403
-266.4638395297
-197.4896872669
-266.5068224688
-201.4762187832
-132.3137580684
-201.4331754613
-266.4269381156
-197.4778964798
-266.4331846492

SCALARS vonMises	float	1
LOOKUP_TABLE	default
99.7736483099
84.3712127565
100.2911790444
73.6036723753
47.0650909429
73.7048989885
101.1330205405
83.3439386722
100.9839910149
181.1527323647
148.714772732
181.4357644125
143.7151183779
100.0261378719
143.7522765506
181.7064360622
147.9967440611
181.6125838949
185.3373555588
159.5034531797
185.4033067378
168.7860078942
143.8428054894
168.7840712125
185.5413687871
159.3960468689
185.4920064494
