# vtk DataFile Version 2.0
Results
ASCII
DATASET UNSTRUCTURED_GRID
POINTS         27           float
0.0	0.0	0.0	
50.0	0.0	0.0	
100.0	0.0	0.0	
0.0	40.0	0.0	
50.0	40.0	0.0	
100.0	40.0	0.0	
0.0	80.0	0.0	
50.0	80.0	0.0	
100.0	80.0	0.0	
0.0	0.0	70.0	
50.0	0.0	70.0	
100.0	0.0	70.0	
0.0	40.0	70.0	
50.0	40.0	70.0	
100.0	40.0	70.0	
0.0	80.0	70.0	
50.0	80.0	70.0	
100.0	80.0	70.0	
0.0	0.0	140.0	
50.0	0.0	140.0	
100.0	0.0	140.0	
0.0	40.0	140.0	
50.0	40.0	140.0	
100.0	40.0	140.0	
0.0	80.0	140.0	
50.0	80.0	140.0	
100.0	80.0	140.0	

CELLS	8	72
 8	0	1	4	3	9	10	13	12	
 8	1	2	5	4	10	11	14	13	
 8	4	5	8	7	13	14	17	16	
 8	3	4	7	6	12	13	16	15	
 8	9	10	13	12	18	19	22	21	
 8	10	11	14	13	19	20	23	22	
 8	13	14	17	16	22	23	26	25	
 8	12	13	16	15	21	22	25	24	

CELL_TYPES	8
 12
 12
 12
 12
 12
 12
 12
 12

POINT_DATA	27
VECTORS	u 	float 
0.0	0.0	0.0
-0.0061912712	0.0	0.0
-0.0120142795	0.0	0.0
0.0	-0.0069568154	0.0
-0.0061978439	-0.0069832161	0.0
-0.0126597154	-0.0068301471	0.0
0.0	-0.0131680729	0.0
-0.006315053	-0.0145920417	0.0
-0.012515283	-0.0130316494	0.0
-0.0295102945	-0.0262924752	6.2297e-06
-0.0061543585	-0.0252546468	0.0140399957
0.0171137668	-0.0261106216	1.42207e-05
-0.0294762986	-0.0070078202	0.0098837386
-0.006233333	-0.0069676566	0.0240022724
0.0170746049	-0.0068553766	0.0098692028
-0.0295685295	0.0121031923	5.95192e-05
-0.0062820989	0.0114867798	0.0140803838
0.0169736946	0.0122566955	4.34225e-05
-0.0720470347	-0.0613246306	0.0615378661
-0.006163916	-0.0615249188	0.0770173924
0.0597606616	-0.0611814623	0.0615184697
-0.0722455203	-0.0070746287	0.0717020615
-0.0062147806	-0.0069738619	0.0874422588
0.0597856755	-0.0069169668	0.0717006653
-0.0722022567	0.0472570925	0.0615591749
-0.0062813925	0.0474991806	0.0770782282
0.0596528791	0.0474110154	0.061550259

VECTORS	v 	float 
0.0	0.0	0.0
7.9146e-05	0.0	0.0
0.0001610813	0.0	0.0
0.0	5.66288e-05	0.0
8.5865e-05	6.27533e-05	0.0
0.0001692891	5.63332e-05	0.0
0.0	0.0001160831	0.0
7.73717e-05	0.0001235048	0.0
0.0001567958	0.000115781	0.0
6.31385e-05	3.41723e-05	8.39825e-05
8.3244e-05	4.08061e-05	6.36419e-05
0.00010246	3.53129e-05	8.43433e-05
7.01403e-05	5.96362e-05	6.78422e-05
8.11525e-05	5.87399e-05	4.60423e-05
9.31004e-05	6.06728e-05	6.76432e-05
6.26939e-05	8.42733e-05	8.44762e-05
8.26288e-05	7.73886e-05	6.49234e-05
0.0001019626	8.51223e-05	8.47554e-05
0.0001970019	0.0001647379	5.02717e-05
8.20882e-05	0.0001737367	1.68501e-05
-3.25523e-05	0.0001656262	5.11621e-05
0.0002130426	5.79847e-05	2.30333e-05
8.2404e-05	5.89385e-05	-1.37128e-05
-4.86153e-05	5.90251e-05	2.23001e-05
0.0001957508	-4.86713e-05	5.15494e-05
8.12087e-05	-5.60393e-05	1.71908e-05
-3.32407e-05	-4.74283e-05	5.23259e-05

VECTORS	a 	float 
0.0	0.0	0.0
-0.8940168956	0.0	0.0
-1.7850690197	0.0	0.0
0.0	-0.7211429197	0.0
-0.8858272535	-0.7125179254	0.0
-1.7741593162	-0.7209791573	0.0
0.0	-1.4376331318	0.0
-0.8961697249	-1.4285374044	0.0
-1.7906329557	-1.4373070211	0.0
0.0049279053	-0.0069940331	3.0714379896
-0.8889309391	0.0021753854	3.0844903756
-1.7837206099	-0.0053372291	3.071886736
0.0109815955	-0.716777265	3.0773934517
-0.8915787605	-0.7180300117	3.0880601128
-1.7931926754	-0.7153115917	3.0769749268
0.0042638083	-1.4278080866	3.0721061727
-0.8899035996	-1.4371169988	3.0858632617
-1.7846025975	-1.4265346013	3.0724206306
0.0064226603	0.0030975222	6.1581233094
-0.8903514056	0.0153595739	6.186051396
-1.7868328708	0.0042696509	6.1589990253
0.0245915253	-0.718880235	6.1742008252
-0.8899892142	-0.7175176531	6.1981881567
-1.8049484179	-0.717529472	6.1733321672
0.0049026216	-1.4405771716	6.1595383266
-0.891425466	-1.4507422968	6.1865099051
-1.7876903733	-1.4390519514	6.1603291115

SCALARS	theta	float 1
LOOKUP_TABLE	default
298.3592887046
298.4111075687
298.3624010711
298.3828890013
298.4296036917
298.3828786201
298.3632847011
298.4063349215
298.3632177352
304.8902793332
304.9270361618
304.8899106135
304.9069944358
304.9447295826
304.9071010601
304.8892905449
304.9274722414
304.8892838968
312.9844499068
313.0166712924
312.9843639282
312.9975938783
313.0298682031
312.9974999436
312.9847380313
313.0167107348
312.9847318005

SCALARS	sig_11	float	1
LOOKUP_TABLE	default
15.1260065694
26.1048615602
16.0831759894
23.4028723792
33.0806780594
22.948032828
15.524073989
24.7942559
15.5984782035
-6.8625398567
-2.210428294
-6.930718675
-3.1288191848
1.6710577252
-3.1022051019
-7.1317726797
-2.3488659717
-7.1457609606
-19.2400013992
-18.7955440507
-19.2200808433
-19.0582937609
-18.5824606676
-19.0648031553
-19.1912218486
-18.7792457993
-19.1841486808

SCALARS	sig_22	float	1
LOOKUP_TABLE	default
9.4203417743
19.6413469217
10.1734337758
18.3848013301
26.7193824027
18.3800867513
11.2167660252
17.995934944
11.2702390731
-5.9424148475
-2.7506773392
-5.9980997363
-2.0679560479
1.3151052839
-2.0657735531
-6.1020897379
-2.6568246841
-6.1041866239
-14.0622028219
-13.7152645809
-14.0484196981
-13.9626883691
-13.605564599
-13.9568096595
-14.0024780814
-13.7520974124
-14.0035787216

SCALARS	sig_33	float	1
LOOKUP_TABLE	default
25.1360212857
52.0528697202
25.6276723426
44.9342281847
70.9720491462
44.7651838144
25.8876228802
51.2924997939
25.8913413144
-9.0712985096
4.5113152198
-9.1265821992
0.6922993642
14.4748890021
0.6948699112
-9.1613457671
4.5608580021
-9.1741591922
-54.6544282589
-52.5651798634
-54.6809342514
-54.2451431439
-51.9954352091
-54.2281713997
-54.6644510395
-52.5470507606
-54.6428914586

SCALARS vonMises	float	1
LOOKUP_TABLE	default
68.5848610226
51.5114403526
68.0901065129
55.8123589641
37.1845627378
56.0627990322
67.9701707455
52.6817410205
68.035133096
49.0833283343
44.9304040004
48.9956138351
46.7964159041
43.8476394377
46.8369540962
48.9712496165
45.0817212419
48.9799879991
54.4391575025
54.1294254284
54.5391600349
54.4491112999
54.0847126442
54.4118265784
54.6069349529
54.0602155333
54.5988014398
