# vtk DataFile Version 2.0
Results
ASCII
DATASET UNSTRUCTURED_GRID
POINTS         27           float
0.0	0.0	0.0	
50.0	0.0	0.0	
100.0	0.0	0.0	
0.0	40.0	0.0	
50.0	40.0	0.0	
100.0	40.0	0.0	
0.0	80.0	0.0	
50.0	80.0	0.0	
100.0	80.0	0.0	
0.0	0.0	70.0	
50.0	0.0	70.0	
100.0	0.0	70.0	
0.0	40.0	70.0	
50.0	40.0	70.0	
100.0	40.0	70.0	
0.0	80.0	70.0	
50.0	80.0	70.0	
100.0	80.0	70.0	
0.0	0.0	140.0	
50.0	0.0	140.0	
100.0	0.0	140.0	
0.0	40.0	140.0	
50.0	40.0	140.0	
100.0	40.0	140.0	
0.0	80.0	140.0	
50.0	80.0	140.0	
100.0	80.0	140.0	

CELLS	8	72
 8	0	1	4	3	9	10	13	12	
 8	1	2	5	4	10	11	14	13	
 8	4	5	8	7	13	14	17	16	
 8	3	4	7	6	12	13	16	15	
 8	9	10	13	12	18	19	22	21	
 8	10	11	14	13	19	20	23	22	
 8	13	14	17	16	22	23	26	25	
 8	12	13	16	15	21	22	25	24	

CELL_TYPES	8
 12
 12
 12
 12
 12
 12
 12
 12

POINT_DATA	27
VECTORS	u 	float 
0.0	0.0	0.0
-0.0125050536	0.0	0.0
-0.0245751233	0.0	0.0
0.0	-0.0118788246	0.0
-0.0125167985	-0.0119103596	0.0
-0.0253442788	-0.0117201101	0.0
0.0	-0.0228365389	0.0
-0.0126608918	-0.0245919419	0.0
-0.0251947209	-0.0226595682	0.0
-0.0322835372	-0.0279551815	-0.0094978542
-0.0124609566	-0.0266226742	0.0080018492
0.0072568118	-0.0277274921	-0.0094896565
-0.0322156705	-0.0119430868	0.0026745417
-0.0125587976	-0.0118918825	0.020259835
0.0071741411	-0.0117521459	0.00265503
-0.0323592164	0.0038549114	-0.009429778
-0.0126209469	0.0030466115	0.0080547476
0.0070829679	0.0040467376	-0.0094503908
-0.0916358822	-0.0778622681	0.0555767577
-0.0124712682	-0.0780306513	0.0777587349
0.0667431213	-0.0776826968	0.055551417
-0.0917811425	-0.0120281759	0.0706787623
-0.0125356063	-0.0119021645	0.0931657358
0.0666743411	-0.0118307596	0.0706754654
-0.0918298801	0.0539069464	0.0556070518
-0.0126185072	0.0541296	0.0778370279
0.0666078875	0.054099523	0.0555943687

VECTORS	v 	float 
0.0	0.0	0.0
5.58292e-05	0.0	0.0
0.0001079292	0.0	0.0
0.0	4.90428e-05	0.0
4.75656e-05	4.01201e-05	0.0
9.81865e-05	4.85218e-05	0.0
0.0	9.17702e-05	0.0
5.80787e-05	8.51972e-05	0.0
0.0001142832	9.09533e-05	0.0
-2.00068e-05	-1.31132e-05	0.0001205122
5.05741e-05	-2.14194e-05	7.36622e-05
0.0001222876	-1.50954e-05	0.0001201029
-2.34505e-05	4.4523e-05	9.2528e-05
5.34054e-05	4.58481e-05	4.77296e-05
0.0001291963	4.28126e-05	9.29566e-05
-1.92851e-05	0.0001038026	0.0001195872
5.17969e-05	0.0001115625	7.23767e-05
0.0001234467	0.0001022893	0.0001193785
0.0002439336	0.0002065745	7.17846e-05
5.2097e-05	0.0002011351	-3.10391e-05
-0.0001401551	0.0002053252	7.10426e-05
0.0002311767	4.67994e-05	-2.5881e-06
5.17226e-05	4.52011e-05	-0.0001024155
-0.0001272721	4.53297e-05	-1.7741e-06
0.0002455756	-0.0001134663	7.0207e-05
5.31901e-05	-0.0001101655	-3.15269e-05
-0.0001392971	-0.0001151031	6.95522e-05

VECTORS	a 	float 
0.0	0.0	0.0
0.8957196007	0.0	0.0
1.7897467407	0.0	0.0
0.0	0.7193632537	0.0
0.8899966123	0.7131460201	0.0
1.7814253381	0.7192560891	0.0
0.0	1.4358294609	0.0
0.8971391592	1.4284481214	0.0
1.7933229672	1.4356159141	0.0
-0.0005623782	0.0044884063	-3.0761896941
0.8921837957	-0.0014029669	-3.0835580617
1.7854789137	0.0034282949	-3.0765066924
-0.0042623754	0.716164283	-3.079070107
0.8939871838	0.71708987	-3.0845720436
1.7916720831	0.7152223717	-3.0787686801
-0.0001159535	1.4286204205	-3.0766262969
0.8928009912	1.4348952712	-3.084427856
1.78603228	1.4277973314	-3.0768559447
-0.0050656979	-0.0028220582	-6.1574218151
0.8931718084	-0.0120067899	-6.1776265145
1.7912509167	-0.0035544296	-6.1580181352
-0.0175682478	0.7175808013	-6.1693539909
0.8928893597	0.7166737355	-6.1866042578
1.8035608577	0.716739694	-6.1687595476
-0.0041310863	1.4378171561	-6.15834348
0.8938367299	1.4455568223	-6.1779003444
1.7917814644	1.436869329	-6.1588816033

SCALARS	theta	float 1
LOOKUP_TABLE	default
297.209941412
297.2571180291
297.2125758959
297.2276495995
297.2696419278
297.2281704354
297.2143815038
297.2523117574
297.2143368806
304.0608964802
304.135278097
304.0603937285
304.0972772325
304.1726091091
304.0972050471
304.0600138121
304.1360359925
304.0600059954
315.6283740837
315.7454064449
315.6283526523
315.6877584413
315.8048765753
315.6877021511
315.6287613587
315.7454074753
315.6286948558

SCALARS	sig_11	float	1
LOOKUP_TABLE	default
11.691718687
25.5170271665
12.8575225782
21.9936040192
34.2166658307
21.4572889679
12.1830030268
23.8747726237
12.2514743987
-2.6755684147
3.5860139138
-2.7561895378
2.5419722284
8.9816010673
2.5738139451
-3.0104061153
3.4124550993
-3.0258928175
-30.5426218973
-29.2605855542
-30.5198666913
-29.2674714313
-27.9441483285
-29.2749369131
-30.4814706376
-29.2392438537
-30.4736917364

SCALARS	sig_22	float	1
LOOKUP_TABLE	default
5.8680135823
18.7452501801
6.8117813049
17.0358875504
27.5680286943
17.0500847021
8.0956451851
16.6946165399
8.1686479164
-2.7323455741
1.6095822786
-2.7970539482
2.7300429792
7.305588423
2.7343290584
-2.9317235991
1.7238462919
-2.931880329
-22.9399892174
-21.9585968021
-22.9250876736
-21.5989998576
-20.602387539
-21.5923433248
-22.866079284
-22.0038290015
-22.8687674487

SCALARS	sig_33	float	1
LOOKUP_TABLE	default
21.2589022801
54.9866452383
21.8714538826
45.7841261027
78.3976786021
45.5830092764
22.196108566
54.0302624779
22.1918774389
-2.6177627913
16.4272086588
-2.6831031723
11.5736727786
30.8553242081
11.5765014439
-2.7296127972
16.4865339963
-2.7457444297
-83.574764472
-76.9524483258
-83.6088108654
-78.910984183
-72.0880560353
-78.8901137795
-83.5850713453
-76.9293665421
-83.5601706241

SCALARS vonMises	float	1
LOOKUP_TABLE	default
71.454623806
53.8903219278
70.8668392009
59.3929870013
42.0500738208
59.6879851523
70.7568536571
55.3562776051
70.8457914086
62.6952815683
58.4085078602
62.633041134
60.2038423089
57.2053448875
60.2304844147
62.6160807437
58.4683423507
62.6265081083
77.979816783
76.0597458711
78.1008126104
76.9562218123
75.0329470481
76.9137101865
78.1860893059
75.9720883507
78.1743240573
