# vtk DataFile Version 2.0
Results
ASCII
DATASET UNSTRUCTURED_GRID
POINTS         27           float
0.0	0.0	0.0	
50.0	0.0	0.0	
100.0	0.0	0.0	
0.0	40.0	0.0	
50.0	40.0	0.0	
100.0	40.0	0.0	
0.0	80.0	0.0	
50.0	80.0	0.0	
100.0	80.0	0.0	
0.0	0.0	70.0	
50.0	0.0	70.0	
100.0	0.0	70.0	
0.0	40.0	70.0	
50.0	40.0	70.0	
100.0	40.0	70.0	
0.0	80.0	70.0	
50.0	80.0	70.0	
100.0	80.0	70.0	
0.0	0.0	140.0	
50.0	0.0	140.0	
100.0	0.0	140.0	
0.0	40.0	140.0	
50.0	40.0	140.0	
100.0	40.0	140.0	
0.0	80.0	140.0	
50.0	80.0	140.0	
100.0	80.0	140.0	

CELLS	8	72
 8	0	1	4	3	9	10	13	12	
 8	1	2	5	4	10	11	14	13	
 8	4	5	8	7	13	14	17	16	
 8	3	4	7	6	12	13	16	15	
 8	9	10	13	12	18	19	22	21	
 8	10	11	14	13	19	20	23	22	
 8	13	14	17	16	22	23	26	25	
 8	12	13	16	15	21	22	25	24	

CELL_TYPES	8
 12
 12
 12
 12
 12
 12
 12
 12

POINT_DATA	27
VECTORS	u 	float 
0.0	0.0	0.0
0.0037562192	0.0	0.0
0.0075175561	0.0	0.0
0.0	0.0050764594	0.0
0.0037214364	0.0050362156	0.0
0.0074344412	0.0051536385	0.0
0.0	0.010449541	0.0
0.0036715635	0.0098397695	0.0
0.0072683502	0.0105822952	0.0
0.0103925606	0.0122486051	-0.009978907
0.0037566976	0.0137742482	-0.0053418227
-0.0028824623	0.0123548209	-0.0099919512
0.0105660532	0.0050243222	-0.0072585456
0.0037190112	0.0050621033	-0.0028557496
-0.0031280419	0.005120576	-0.0072839249
0.0103408446	-0.0022699418	-0.0099527036
0.0036793828	-0.0035799369	-0.0052996947
-0.002965596	-0.002175786	-0.0099698771
-0.0283844507	-0.0245052051	-0.0093242265
0.0037702472	-0.0224676574	0.0061399021
0.0359291582	-0.0244118104	-0.0093457221
-0.0277999457	0.004987298	0.0031882115
0.0037327956	0.005042704	0.0185138495
0.0352646095	0.0050834678	0.0031731995
-0.0284752617	0.0345113284	-0.0092943029
0.0036956542	0.0325202261	0.0061764426
0.0358606726	0.0346046779	-0.009313819

VECTORS	v 	float 
0.0	0.0	0.0
0.0023411493	0.0	0.0
0.0046813379	0.0	0.0
0.0	0.0019785793	0.0
0.0023431303	0.0019851601	0.0
0.0046869892	0.0019833266	0.0
0.0	0.0039740589	0.0
0.0023372159	0.0039566356	0.0
0.0046688733	0.0039821182	0.0
0.0005110564	0.0006169179	-0.0080445627
0.0023436931	0.0006886864	-0.0077896035
0.0041764357	0.0006227538	-0.0080450114
0.0005055582	0.0019811021	-0.0078968449
0.0023408672	0.0019815748	-0.0076549709
0.0041758871	0.0019862649	-0.0078987031
0.00050825	0.003341209	-0.0080429049
0.0023393715	0.0032786081	-0.0077879663
0.0041717743	0.0033462216	-0.0080436311
-0.0016637445	-0.0014348386	-0.0154257082
0.0023438916	-0.0013373974	-0.0145772941
0.0063517155	-0.0014298253	-0.0154268862
-0.0016502012	0.001978161	-0.0147375596
0.002342217	0.0019818009	-0.0138968525
0.006334648	0.0019833814	-0.0147385888
-0.0016686375	0.0053930811	-0.0154241023
0.0023399154	0.0052989895	-0.0145756683
0.0063480391	0.0053981409	-0.0154251539

VECTORS	a 	float 
0.0	0.0	0.0
0.1480787398	0.0	0.0
0.2961440912	0.0	0.0
0.0	0.1187691858	0.0
0.1480446112	0.1187193581	0.0
0.2960995621	0.1187788905	0.0
0.0	0.2375546377	0.0
0.1480767598	0.2374262005	0.0
0.2961351382	0.2375716494	0.0
0.0016287885	0.0018698241	-0.5091256494
0.1480604093	0.0020533776	-0.5086043931
0.2944961467	0.001876734	-0.5091294846
0.0016550512	0.1187390339	-0.5088232545
0.1480657564	0.1187513822	-0.508325719
0.294471987	0.1187457048	-0.5088250932
0.0016245241	0.235605698	-0.5091259163
0.1480542745	0.2354524482	-0.5086038978
0.2944887621	0.2356130208	-0.5091296955
-0.0036703033	-0.0031532425	-1.0169192203
0.1480678512	-0.0028909505	-1.0150470003
0.2998053656	-0.0031453436	-1.0169268798
-0.0036007098	0.1187445574	-1.0153891568
0.1480616384	0.1187452012	-1.0135190622
0.2997254427	0.1187518016	-1.0153868215
-0.0036757382	0.2406450061	-1.0169231527
0.1480622591	0.2403789281	-1.0150422217
0.2997994231	0.240650927	-1.0169301125

SCALARS	theta	float 1
LOOKUP_TABLE	default
301.4224663906
301.2831998952
301.4156271998
301.369172915
301.2630836657
301.3662068082
301.3969790735
301.3098962273
301.4005151733
298.0756137241
297.852028787
298.0771620516
297.8634706344
297.6360872491
297.8641493576
298.0822309885
297.846833525
298.0814322109
307.0312129693
306.6488667479
307.0309239207
306.6468021187
306.2629453248
306.6462467443
307.0282858523
306.650982239
307.0288014957

SCALARS	sig_11	float	1
LOOKUP_TABLE	default
-29.4302212457
-21.9851924272
-29.1630865969
-24.8808678116
-18.2935008752
-24.7869879552
-29.0071971263
-22.9718918404
-29.2234897315
16.6131344642
27.3400346017
16.5902265961
26.9286515813
37.6411787582
26.9188891074
16.465481935
27.2855225996
16.4754211637
-46.329639292
-30.7107227893
-46.3294326932
-30.3100350865
-14.6407225417
-30.3010097645
-46.2815324493
-30.7105092045
-46.2920995491

SCALARS	sig_22	float	1
LOOKUP_TABLE	default
-25.4378095612
-18.7664820366
-25.0026395806
-20.5033345654
-15.0403641683
-20.2276678121
-24.3843099409
-19.7935957651
-24.3420406795
12.5681491033
20.5252331567
12.5568729822
23.2911843136
31.2656015809
23.2953443282
12.4726005514
20.5825110719
12.4929561242
-38.3180073429
-26.4780235286
-38.3241463667
-21.4292805311
-9.5492869547
-21.423854037
-38.2724236851
-26.5048167843
-38.2897596935

SCALARS	sig_33	float	1
LOOKUP_TABLE	default
-51.9163958122
-39.2104096059
-51.6780012854
-44.147509363
-32.4191544989
-44.0593944695
-51.2723167948
-39.8970535307
-51.3892084816
15.7261016955
35.3102271807
15.6899457358
33.6178588592
53.1427220012
33.5962251547
15.6732263595
35.3488616846
15.6623897832
-105.0053113359
-76.9046565982
-105.0168486675
-76.8308343963
-48.6283327599
-76.8093487909
-104.9685842987
-76.9196669632
-104.9766097282

SCALARS vonMises	float	1
LOOKUP_TABLE	default
44.5138914058
37.0946661785
44.6821768135
33.9795463948
21.7173326161
34.0309206283
44.9516807913
36.717606222
44.8942064724
65.7376499772
52.3376881659
65.8305455982
50.6918304957
31.4486185315
50.7127011085
65.9178286924
52.0838144996
65.883233891
67.810515677
57.21235912
67.8288266499
60.4297554307
49.6660503877
60.427393499
67.8762084033
57.1777532484
67.8592265904
