# vtk DataFile Version 2.0
Results
ASCII
DATASET UNSTRUCTURED_GRID
POINTS         27           float
0.0	0.0	0.0	
50.0	0.0	0.0	
100.0	0.0	0.0	
0.0	40.0	0.0	
50.0	40.0	0.0	
100.0	40.0	0.0	
0.0	80.0	0.0	
50.0	80.0	0.0	
100.0	80.0	0.0	
0.0	0.0	70.0	
50.0	0.0	70.0	
100.0	0.0	70.0	
0.0	40.0	70.0	
50.0	40.0	70.0	
100.0	40.0	70.0	
0.0	80.0	70.0	
50.0	80.0	70.0	
100.0	80.0	70.0	
0.0	0.0	140.0	
50.0	0.0	140.0	
100.0	0.0	140.0	
0.0	40.0	140.0	
50.0	40.0	140.0	
100.0	40.0	140.0	
0.0	80.0	140.0	
50.0	80.0	140.0	
100.0	80.0	140.0	

CELLS	8	72
 8	0	1	4	3	9	10	13	12	
 8	1	2	5	4	10	11	14	13	
 8	4	5	8	7	13	14	17	16	
 8	3	4	7	6	12	13	16	15	
 8	9	10	13	12	18	19	22	21	
 8	10	11	14	13	19	20	23	22	
 8	13	14	17	16	22	23	26	25	
 8	12	13	16	15	21	22	25	24	

CELL_TYPES	8
 12
 12
 12
 12
 12
 12
 12
 12

POINT_DATA	27
VECTORS	u 	float 
0.0	0.0	0.0
-0.0149853788	0.0	0.0
-0.0295335294	0.0	0.0
0.0	-0.0123287868	0.0
-0.0150157308	-0.0123612845	0.0
-0.030337602	-0.0121275435	0.0
0.0	-0.0235570434	0.0
-0.0151829406	-0.0256407806	0.0
-0.0302808181	-0.0233115643	0.0
-0.0250709179	-0.0189739102	-0.0199536584
-0.0149397379	-0.0170761271	0.0011996083
-0.0049172162	-0.0186890517	-0.0199504492
-0.0249845554	-0.0124083888	-0.00571084
-0.015057601	-0.0123405284	0.0154656949
-0.0050570335	-0.0121682891	-0.0057408902
-0.0251746922	-0.0060975142	-0.0198676597
-0.0151406127	-0.0073555152	0.0012695046
-0.005132237	-0.005857666	-0.0198962406
-0.1157932087	-0.0981810405	0.0434688147
-0.014945426	-0.0978663537	0.0789127266
0.0859555513	-0.0979544589	0.0434332367
-0.1157656723	-0.0125151715	0.0691224394
-0.0150290526	-0.0123585476	0.1048601848
0.0856729976	-0.0122672752	0.0691125002
-0.1160340044	0.0732709072	0.0435129877
-0.0151309849	0.0730328464	0.0790126666
0.0857836692	0.0735127192	0.0434916911

VECTORS	v 	float 
0.0	0.0	0.0
-2.68933e-05	0.0	0.0
-5.30878e-05	0.0	0.0
0.0	-5.59459e-05	0.0
-2.15439e-05	-4.69424e-05	0.0
-4.37798e-05	-5.59495e-05	0.0
0.0	-0.0001121276	0.0
-2.68127e-05	-9.369e-05	0.0
-5.32203e-05	-0.0001120737	0.0
-0.0002118685	-0.000233617	0.0001262742
-2.36037e-05	-0.0002403797	8.53021e-05
0.0001645146	-0.0002335414	0.0001267245
-0.0002094561	-5.05992e-05	0.000106985
-2.48265e-05	-5.23091e-05	6.35241e-05
0.000160124	-5.05897e-05	0.000106502
-0.0002117747	0.0001323864	0.0001263986
-2.3618e-05	0.0001357741	8.53754e-05
0.0001644541	0.0001322746	0.0001267683
0.0003241535	0.0002723859	0.0002062099
-2.44505e-05	0.0002729475	6.397e-06
-0.0003729691	0.0002722919	0.0002065937
0.0003362391	-5.17448e-05	3.78909e-05
-2.38687e-05	-5.11862e-05	-0.0001655297
-0.000384192	-5.1804e-05	3.75103e-05
0.0003241212	-0.000375989	0.0002066778
-2.43641e-05	-0.0003752445	6.0902e-06
-0.0003727942	-0.0003759752	0.0002070007

VECTORS	a 	float 
0.0	0.0	0.0
-0.89697278	0.0	0.0
-1.793269311	0.0	0.0
0.0	-0.7177123454	0.0
-0.8936118934	-0.7140410457	0.0
-1.7877925122	-0.7176801408	0.0
0.0	-1.4340188494	0.0
-0.8977828978	-1.4290888814	0.0
-1.795178712	-1.4339543859	0.0
-0.003190494	-0.0026357263	3.0795732035
-0.8949154449	0.000550654	3.0828300996
-1.7868812651	-0.002084003	3.0797651889
-0.0013649513	-0.7158012219	3.0803239912
-0.8959393142	-0.7163477364	3.082380903
-1.7902629511	-0.7153006922	3.0801515968
-0.0034551559	-1.4293473811	3.0797958829
-0.8952289324	-1.4329296757	3.0832915601
-1.7871513674	-1.4288983376	3.0799457416
0.0039262676	0.0025429456	6.1560603473
-0.8954849512	0.0085838113	6.1697089377
-1.7948489749	0.002938009	6.1564196363
0.0111696896	-0.7165804375	6.1645441316
-0.895314524	-0.7160894283	6.1763016955
-1.8018728872	-0.7161372579	6.1641953605
0.0034517636	-1.4356332418	6.1565416506
-0.8958416124	-1.4408415426	6.169846626
-1.795141893	-1.4351413387	6.1568694851

SCALARS	theta	float 1
LOOKUP_TABLE	default
297.3093621726
297.3113586715
297.3084742206
297.2969338771
297.2946005159
297.2994183338
297.3144471059
297.3070264825
297.3131796555
301.622140421
301.7579622824
301.6215792323
301.7132783115
301.8493554715
301.712552056
301.6215973137
301.7593531717
301.6217785492
320.0818913282
320.3858789572
320.0821857323
320.287870663
320.592312985
320.2881497377
320.0823126212
320.3856230715
320.0821199884

SCALARS	sig_11	float	1
LOOKUP_TABLE	default
-7.9735003988
9.2682248152
-6.6772636412
4.3364802953
19.7511994238
3.8138177503
-7.4240030094
7.2744933713
-7.4298133417
14.3698704618
24.0424119086
14.2866427214
22.5421411269
32.4073883158
22.5741341478
13.9678080284
23.8305469401
13.9565152766
-57.5787865428
-52.6596428269
-57.5594536171
-52.5970761489
-47.6248953761
-52.6044818126
-57.5041943697
-52.6307662759
-57.4993989142

SCALARS	sig_22	float	1
LOOKUP_TABLE	default
-10.9845166847
5.0566586107
-9.8245519792
2.3647261979
15.6124013319
2.4708305083
-8.3400440247
2.5932458692
-8.2156955733
10.7933034255
17.5603418946
10.7316038043
19.3496503319
26.3814715235
19.3604551413
10.5532859056
17.6933076408
10.5632554329
-44.5531604715
-40.9891115158
-44.5436551433
-39.1590216386
-35.5736832944
-39.154218984
-44.4646678517
-41.0408420431
-44.4731297644

SCALARS	sig_33	float	1
LOOKUP_TABLE	default
-5.39332997
35.9601453402
-4.6652628272
23.5715635018
63.548417229
23.3725603463
-4.2833919918
34.801201039
-4.3085695496
23.1593420148
53.158702649
23.0899053248
46.441768737
76.681643468
46.4418058721
23.0270657221
53.2262092203
23.0073268445
-148.3358617361
-127.1567433872
-148.3819728731
-129.9866768196
-108.5697907554
-129.9631607059
-148.3432500161
-127.1260800231
-148.319496573

SCALARS vonMises	float	1
LOOKUP_TABLE	default
44.8580842751
35.7897203326
44.3147531469
41.9874422899
39.3606979853
42.2815442112
44.5031420845
37.6641618297
44.6628035548
90.8263985423
86.94070065
91.0840230634
86.3189630574
79.971650591
86.2805988062
91.2251850896
86.6068598564
91.2242116453
125.5271080849
117.9162579059
125.6609712724
120.9418163139
113.696481645
120.903849809
125.768726496
117.8066442037
125.7479205237
