# vtk DataFile Version 2.0
Results
ASCII
DATASET UNSTRUCTURED_GRID
POINTS         27           float
0.0	0.0	0.0	
50.0	0.0	0.0	
100.0	0.0	0.0	
0.0	40.0	0.0	
50.0	40.0	0.0	
100.0	40.0	0.0	
0.0	80.0	0.0	
50.0	80.0	0.0	
100.0	80.0	0.0	
0.0	0.0	70.0	
50.0	0.0	70.0	
100.0	0.0	70.0	
0.0	40.0	70.0	
50.0	40.0	70.0	
100.0	40.0	70.0	
0.0	80.0	70.0	
50.0	80.0	70.0	
100.0	80.0	70.0	
0.0	0.0	140.0	
50.0	0.0	140.0	
100.0	0.0	140.0	
0.0	40.0	140.0	
50.0	40.0	140.0	
100.0	40.0	140.0	
0.0	80.0	140.0	
50.0	80.0	140.0	
100.0	80.0	140.0	

CELLS	8	72
 8	0	1	4	3	9	10	13	12	
 8	1	2	5	4	10	11	14	13	
 8	4	5	8	7	13	14	17	16	
 8	3	4	7	6	12	13	16	15	
 8	9	10	13	12	18	19	22	21	
 8	10	11	14	13	19	20	23	22	
 8	13	14	17	16	22	23	26	25	
 8	12	13	16	15	21	22	25	24	

CELL_TYPES	8
 12
 12
 12
 12
 12
 12
 12
 12

POINT_DATA	27
VECTORS	u 	float 
0.0	0.0	0.0
0.0045834166	0.0	0.0
0.0091761554	0.0	0.0
0.0	0.0068077036	0.0
0.0045334931	0.0067605119	0.0
0.0090563473	0.0069286112	0.0
0.0	0.0140926948	0.0
0.004453757	0.0131424063	0.0
0.0087903895	0.0142968379	0.0
0.0151280461	0.0181184786	-0.0137921527
0.0045871317	0.0204204778	-0.0062252451
-0.0059596269	0.0182834604	-0.0138111395
0.0152914993	0.0067368245	-0.0093550945
0.0045278815	0.0067919522	-0.0021264621
-0.0062365041	0.0068853817	-0.0093935636
0.015048089	-0.0047580967	-0.0137495603
0.0044671253	-0.006723404	-0.0061639259
-0.0060879642	-0.0046123321	-0.0137757094
-0.0462790416	-0.0399153223	-0.0094034954
0.0046066381	-0.036924077	0.0152143669
0.0554990917	-0.039771336	-0.0094362549
-0.0455662982	0.0066776041	0.0104877779
0.0045489797	0.0067653496	0.0349168316
0.0546635396	0.0068266572	0.0104650703
-0.0464192725	0.0533228134	-0.0093596816
0.0044914901	0.0504008918	0.015271526
0.0553926033	0.0534673369	-0.009388997

VECTORS	v 	float 
0.0	0.0	0.0
-0.0021922854	0.0	0.0
-0.0043847028	0.0	0.0
0.0	-0.0016709448	0.0
-0.0021917008	-0.0016619111	0.0
-0.0043832122	-0.0016663202	0.0
0.0	-0.0033249027	0.0
-0.0021958351	-0.0033378306	0.0
-0.0043966332	-0.0033171715	0.0
0.0003574907	0.0004576541	0.0073725083
-0.0021905845	0.0005178606	0.0076251064
-0.0047387714	0.000463319	0.0073722719
0.0003516317	-0.001666883	0.0075233372
-0.0021930504	-0.0016670036	0.0077650636
-0.004737789	-0.0016619994	0.0075214509
0.0003549244	-0.0037955475	0.0073742455
-0.0021947367	-0.0038476544	0.0076265959
-0.0047432267	-0.0037909126	0.00737368
-0.0015878474	-0.001365622	0.0154408308
-0.0021902376	-0.0012895983	0.0162224277
-0.002792328	-0.0013608394	0.0154398654
-0.0015794031	-0.0016701331	0.0160705547
-0.0021919031	-0.0016664294	0.0168456191
-0.002804548	-0.001665049	0.0160694675
-0.0015927318	-0.0019728304	0.0154426962
-0.0021940871	-0.0020452147	0.0162236913
-0.0027958281	-0.0019678111	0.0154418404

VECTORS	a 	float 
0.0	0.0	0.0
-0.2465706189	0.0	0.0
-0.4930711812	0.0	0.0
0.0	-0.1975369544	0.0
-0.2464665634	-0.1975249487	0.0
-0.4929888754	-0.1975607669	0.0
0.0	-0.3950405535	0.0
-0.2466092429	-0.3950690504	0.0
-0.4931474788	-0.3950851615	0.0
-0.0018956663	-0.0021506608	0.8477824619
-0.2465137836	-0.0021541041	0.8476430948
-0.4911530839	-0.002143123	0.8477893232
-0.0017837237	-0.1975405488	0.8476559977
-0.2465443317	-0.1975439591	0.8475667504
-0.4912855552	-0.1975321866	0.8476656141
-0.0018990954	-0.3929408381	0.8477863747
-0.2465131698	-0.3929282534	0.8476672192
-0.4911474406	-0.3929328833	0.8477927993
0.0038247901	0.0032603835	1.6941539537
-0.2465369371	0.0031235118	1.6929470196
-0.4968953261	0.0032630289	1.6941778256
0.0039538581	-0.1975550863	1.6930031889
-0.2465285536	-0.1975513851	1.6917977415
-0.4970150692	-0.1975503431	1.6929936924
0.0038166379	-0.3983704083	1.694169261
-0.2465424992	-0.398225561	1.6929556324
-0.4968990641	-0.3983626151	1.6941919647

SCALARS	theta	float 1
LOOKUP_TABLE	default
302.0231941403
301.8320588057
302.0136675312
301.9503964651
301.7961433543
301.9464627956
301.9931897212
301.8642244475
301.997499164
297.0262716455
296.7309922232
297.02823149
296.7758436542
296.4759920436
296.7766393188
297.0336519076
296.7255667032
297.0327741262
311.0820295665
310.5923275725
311.0817249934
310.6342575638
310.1436762444
310.6336665109
311.0791538923
310.5941448355
311.0796507253

SCALARS	sig_11	float	1
LOOKUP_TABLE	default
-44.2629315216
-33.0970746342
-43.8658806896
-37.5855952055
-27.5712560287
-37.4451042553
-43.712801209
-34.5173464958
-44.0346647034
26.6866017114
42.3101925613
26.6546201028
41.1392569539
56.7510638474
41.1256222808
26.4709687407
42.2147051019
26.4849073452
-69.8595966835
-47.5335386667
-69.8603304319
-47.7397233332
-25.3533308066
-47.7278249835
-69.7979610675
-47.5242638072
-69.8122052478

SCALARS	sig_22	float	1
LOOKUP_TABLE	default
-38.2629738073
-28.2604305042
-37.606612791
-31.0099803806
-22.7270039825
-30.5939202258
-36.7161769849
-29.7708436421
-36.6428981828
20.4462627615
31.8859848714
20.4317667932
35.3937612472
46.8729288004
35.4016269872
20.3093009926
31.9650446082
20.3392652748
-57.2976279797
-40.5782340233
-57.3074995228
-34.0660288843
-17.3049646358
-34.0599227346
-57.2363693022
-40.6119786029
-57.2607581231

SCALARS	sig_33	float	1
LOOKUP_TABLE	default
-71.738563305
-51.9593385944
-71.3874688451
-59.8302648522
-41.3758413692
-59.7011151061
-70.8482907104
-52.9204154379
-71.0146174328
32.0887840238
61.797013488
32.0375511473
58.4154946704
88.0467309689
58.3848314904
32.0184681306
61.8452878314
32.0007890488
-155.1349925628
-113.1828297402
-155.1552786899
-114.1254371609
-72.0379850472
-114.0952430149
-155.0945444377
-113.1921728857
-155.1040790137

SCALARS vonMises	float	1
LOOKUP_TABLE	default
64.836275701
54.0388487182
65.0999855452
48.6662291473
30.311144237
48.7367975526
65.5334243902
53.4606969537
65.4467741401
101.9691248991
82.2073543442
102.1143537568
79.4849615384
51.9228793649
79.5133194511
102.2568513631
81.8146972501
102.204275525
103.0357086569
87.3506459795
103.0657750571
92.4987261726
76.9375999507
92.4968647176
103.1421972415
87.2938691737
103.1149250217
