# vtk DataFile Version 2.0
Results
ASCII
DATASET UNSTRUCTURED_GRID
POINTS         27           float
0.0	0.0	0.0	
50.0	0.0	0.0	
100.0	0.0	0.0	
0.0	40.0	0.0	
50.0	40.0	0.0	
100.0	40.0	0.0	
0.0	80.0	0.0	
50.0	80.0	0.0	
100.0	80.0	0.0	
0.0	0.0	70.0	
50.0	0.0	70.0	
100.0	0.0	70.0	
0.0	40.0	70.0	
50.0	40.0	70.0	
100.0	40.0	70.0	
0.0	80.0	70.0	
50.0	80.0	70.0	
100.0	80.0	70.0	
0.0	0.0	140.0	
50.0	0.0	140.0	
100.0	0.0	140.0	
0.0	40.0	140.0	
50.0	40.0	140.0	
100.0	40.0	140.0	
0.0	80.0	140.0	
50.0	80.0	140.0	
100.0	80.0	140.0	

CELLS	8	72
 8	0	1	4	3	9	10	13	12	
 8	1	2	5	4	10	11	14	13	
 8	4	5	8	7	13	14	17	16	
 8	3	4	7	6	12	13	16	15	
 8	9	10	13	12	18	19	22	21	
 8	10	11	14	13	19	20	23	22	
 8	13	14	17	16	22	23	26	25	
 8	12	13	16	15	21	22	25	24	

CELL_TYPES	8
 12
 12
 12
 12
 12
 12
 12
 12

POINT_DATA	27
VECTORS	u 	float 
0.0	0.0	0.0
-0.0134262844	0.0	0.0
-0.0264092668	0.0	0.0
0.0	-0.0124870493	0.0
-0.0134401291	-0.0125195472	0.0
-0.0271963489	-0.0123216823	0.0
0.0	-0.024020005	0.0
-0.0135887775	-0.0258375272	0.0
-0.0270516129	-0.0238335908	0.0
-0.0320708805	-0.0274780252	-0.0113843193
-0.0133813578	-0.0260762389	0.006789395
0.0052009959	-0.0272410016	-0.0113764161
-0.0319948139	-0.0125541129	0.0012094976
-0.0134827581	-0.0125004224	0.0194651332
0.0051065532	-0.0123552726	0.0011887071
-0.0321505523	0.0021481632	-0.0113132535
-0.0135479445	0.0012907247	0.0068450004
0.0050203857	0.0023477739	-0.0113349079
-0.0957230413	-0.0812986964	0.0539772757
-0.0133914382	-0.081439181	0.0779330355
0.0689911938	-0.0811116269	0.0539505512
-0.0958451317	-0.0126428526	0.0704401415
-0.0134586966	-0.0125117833	0.0947057902
0.0688915697	-0.0124372954	0.0704361831
-0.095924826	0.0561176132	0.0540096499
-0.0135448096	0.0563153282	0.0780149237
0.0688502203	0.056318123	0.0539959525

VECTORS	v 	float 
0.0	0.0	0.0
4.75458e-05	0.0	0.0
9.15442e-05	0.0	0.0
0.0	3.97569e-05	0.0
3.97037e-05	3.10189e-05	0.0
8.23157e-05	3.92179e-05	0.0
0.0	7.32558e-05	0.0
4.97965e-05	6.69467e-05	0.0
9.78579e-05	7.23858e-05	0.0
-4.24271e-05	-3.63792e-05	0.0001232478
4.25248e-05	-4.47077e-05	7.61844e-05
0.000128573	-3.83812e-05	0.000122839
-4.55509e-05	3.53358e-05	9.56049e-05
4.52716e-05	3.66104e-05	5.07742e-05
0.0001350656	3.3605e-05	9.60552e-05
-4.16773e-05	0.0001086784	0.0001223207
4.37655e-05	0.0001163869	7.49058e-05
0.0001297472	0.0001071462	0.0001221052
0.0002553384	0.0002159241	8.38338e-05
4.39632e-05	0.0002107247	-3.16374e-05
-0.0001678117	0.0002146232	8.3088e-05
0.0002434696	3.75876e-05	-1.7364e-06
4.3649e-05	3.59882e-05	-0.0001140149
-0.0001557309	3.60669e-05	-8.993e-07
0.0002570228	-0.0001412326	8.2253e-05
4.51045e-05	-0.0001381858	-3.2121e-05
-0.0001669022	-0.0001429199	8.15922e-05

VECTORS	a 	float 
0.0	0.0	0.0
0.8960436585	0.0	0.0
1.7906246929	0.0	0.0
0.0	0.7190292758	0.0
0.8907914173	0.7132681637	0.0
1.7828208793	0.7189296748	0.0
0.0	1.4354699265	0.0
0.8973318932	1.4284563145	0.0
1.7938477817	1.4352720167	0.0
0.0003040177	0.0040525922	-3.0769334123
0.8928005233	-0.0012996237	-3.0834103509
1.7857768705	0.0030948447	-3.0772260286
-0.0030039163	0.7160538411	-3.0793498941
0.8944467467	0.7169124118	-3.0840552647
1.7914017319	0.71520158	-3.0790683763
0.0007142177	1.4287526267	-3.07732679
0.8933577877	1.434512945	-3.0841923112
1.7862756158	1.4280061248	-3.0775409153
-0.0048206546	-0.00274427	-6.157056232
0.8937027894	-0.0114198705	-6.1761447573
1.7920917723	-0.0034092721	-6.1576009172
-0.0163357862	0.7173458966	-6.1684540835
0.8934425333	0.7165193102	-6.1847690465
1.8034052849	0.7165847057	-6.1679085318
-0.0039795869	1.4372894882	-6.157887772
0.8943052106	1.4446358201	-6.1763877919
1.7925742925	1.4364338127	-6.158379626

SCALARS	theta	float 1
LOOKUP_TABLE	default
297.0830494096
297.1263953243
297.0853829628
297.0977424617
297.1360300615
297.0984704064
297.0875214024
297.1216811929
297.087423964
303.7817623187
303.8668321803
303.7812346187
303.8246016526
303.9105626413
303.8244589462
303.7809361509
303.8676660085
303.7809333704
316.2667242414
316.4107656082
316.2667349404
316.3425009557
316.4866534478
316.3424728901
316.2671199212
316.4107479374
316.267041163

SCALARS	sig_11	float	1
LOOKUP_TABLE	default
9.8355505506
24.2355669955
11.0356418262
20.5219760579
33.2672414424
19.9763634577
10.3428306195
22.5290550044
10.4055947225
-0.8996608991
5.7712278057
-0.9819272055
4.7011275155
11.5547696034
4.7336676684
-1.2469878371
5.5908587007
-1.2623489295
-33.8376087749
-32.239149493
-33.8147595933
-32.1735879329
-30.5317582372
-32.181173929
-33.774002885
-32.2166871005
-33.7663665454

SCALARS	sig_22	float	1
LOOKUP_TABLE	default
4.2054802465
17.6197845364
5.1868429661
15.791487759
26.7745820828
15.8137890371
6.5136343582
15.4920815305
6.5921970105
-1.3396951903
3.2976242823
-1.4052703125
4.5326930691
9.4108932246
4.5376984687
-1.5466699865
3.4155794337
-1.5458982374
-25.5638202281
-24.3487858337
-25.5491729689
-23.7838014329
-22.5523921711
-23.7771726632
-25.4871875668
-24.3954759245
-25.4904899413

SCALARS	sig_33	float	1
LOOKUP_TABLE	default
18.8323942925
53.9081730257
19.467521954
44.2385446525
78.1533434715
44.0334299992
19.8044179954
52.9138452736
19.7975647132
0.0675531812
20.5374780751
0.0008062644
15.447865861
36.1593342143
15.4506224209
-0.0483702243
20.5984887253
-0.0650974947
-91.7458096859
-83.5523541589
-91.7816136919
-85.5724333114
-77.1708268522
-85.550927337
-91.7558449361
-83.5281886987
-91.7306997858

SCALARS vonMises	float	1
LOOKUP_TABLE	default
69.7129589816
52.7010600146
69.1144188153
58.4402238178
42.3333878272
58.7397960321
69.0172212068
54.2268955148
69.1130861107
65.8422202709
61.7689097561
65.7992621805
63.3895753821
60.3439949976
63.4088398249
65.789245962
61.7850381175
65.7999513507
84.2472854568
81.7353628829
84.3716099409
82.8405964292
80.355150996
82.7978916743
84.4605060693
81.6439461704
84.4476494714
