# vtk DataFile Version 2.0
Results
ASCII
DATASET UNSTRUCTURED_GRID
POINTS         27           float
0.0	0.0	0.0	
50.0	0.0	0.0	
100.0	0.0	0.0	
0.0	40.0	0.0	
50.0	40.0	0.0	
100.0	40.0	0.0	
0.0	80.0	0.0	
50.0	80.0	0.0	
100.0	80.0	0.0	
0.0	0.0	70.0	
50.0	0.0	70.0	
100.0	0.0	70.0	
0.0	40.0	70.0	
50.0	40.0	70.0	
100.0	40.0	70.0	
0.0	80.0	70.0	
50.0	80.0	70.0	
100.0	80.0	70.0	
0.0	0.0	140.0	
50.0	0.0	140.0	
100.0	0.0	140.0	
0.0	40.0	140.0	
50.0	40.0	140.0	
100.0	40.0	140.0	
0.0	80.0	140.0	
50.0	80.0	140.0	
100.0	80.0	140.0	

CELLS	8	72
 8	0	1	4	3	9	10	13	12	
 8	1	2	5	4	10	11	14	13	
 8	4	5	8	7	13	14	17	16	
 8	3	4	7	6	12	13	16	15	
 8	9	10	13	12	18	19	22	21	
 8	10	11	14	13	19	20	23	22	
 8	13	14	17	16	22	23	26	25	
 8	12	13	16	15	21	22	25	24	

CELL_TYPES	8
 12
 12
 12
 12
 12
 12
 12
 12

POINT_DATA	27
VECTORS	u 	float 
0.0	0.0	0.0
0.0028262112	0.0	0.0
0.0059191223	0.0	0.0
0.0	0.0006689504	0.0
0.0028235378	0.0006516584	0.0
0.0054558664	0.0007591175	0.0
0.0	0.0018689629	0.0
0.0027385611	0.0008568223	0.0
0.0055616041	0.0019646022	0.0
-0.0221927887	-0.0199902717	0.0108820819
0.002853625	-0.0192620717	0.0208557149
0.027836794	-0.0198611364	0.010888284
-0.0221794601	0.0006341322	0.017939847
0.0027970635	0.0006621501	0.0279789319
0.02782074	0.0007424674	0.0179298251
-0.0222333131	0.0211346137	0.010919102
0.0027628749	0.0207052663	0.0208830099
0.027736537	0.0212438278	0.0109077836
-0.0507519688	-0.0432374531	0.0660886692
0.0028462418	-0.0433977659	0.0763145277
0.0564743188	-0.0431358287	0.0660753125
-0.050924	0.0005875572	0.0726615777
0.0028103329	0.0006592022	0.0830773777
0.0565228067	0.0006996028	0.0726610412
-0.0508620789	0.0444706865	0.0661020835
0.002762784	0.0446606492	0.0763561766
0.0563975836	0.0445802209	0.0660962391

VECTORS	v 	float 
0.0	0.0	0.0
5.25644e-05	0.0	0.0
0.0001013679	0.0	0.0
0.0	5.76877e-05	0.0
4.18423e-05	4.53764e-05	0.0
8.67875e-05	5.70165e-05	0.0
0.0	0.0001089933	0.0
5.46166e-05	9.57997e-05	0.0
0.000107563	0.0001079172	0.0
3.35444e-05	4.94651e-05	8.03936e-05
4.58682e-05	4.20412e-05	4.58883e-05
5.93142e-05	4.75101e-05	7.99047e-05
3.01688e-05	5.11912e-05	5.81335e-05
4.91922e-05	5.31496e-05	2.56305e-05
6.71105e-05	4.95328e-05	5.8754e-05
3.41392e-05	5.45686e-05	7.95168e-05
4.7081e-05	6.26656e-05	4.46015e-05
6.05429e-05	5.31313e-05	7.92272e-05
0.0001228823	0.0001116912	1.46807e-05
4.77491e-05	0.0001027545	-2.63667e-05
-2.78189e-05	0.0001105122	1.38992e-05
0.0001059534	5.3845e-05	-9.9729e-06
4.71064e-05	5.20981e-05	-4.80229e-05
-1.12255e-05	5.24431e-05	-9.0374e-06
0.0001244708	-4.4475e-06	1.30177e-05
4.87387e-05	1.9936e-06	-2.67219e-05
-2.71001e-05	-6.0338e-06	1.23368e-05

VECTORS	a 	float 
0.0	0.0	0.0
0.890984893	0.0	0.0
1.7769165425	0.0	0.0
0.0	0.7233920599	0.0
0.8787836115	0.7107698845	0.0
1.761832676	0.7230826668	0.0
0.0	1.4391771571	0.0
0.8942825445	1.4273298075	0.0
1.7856954493	1.4385653242	0.0
-0.013098709	0.0097372489	-3.0634479488
0.8833754154	-0.0047269179	-3.0863294802
1.781396414	0.0071042282	-3.064088339
-0.022421564	0.7170791131	-3.0747501072
0.887397406	0.7188954672	-3.0944626108
1.7956466165	0.7147699268	-3.0741220361
-0.0121042009	1.4264514811	-3.0644739007
0.8849306972	1.4406650868	-3.0885406874
1.7828264089	1.4244654966	-3.0649144979
-0.0078812997	-0.003281121	-6.1576245951
0.8855083492	-0.020325007	-6.1991646877
1.7783758925	-0.0051160548	-6.158906981
-0.0344945975	0.7203024511	-6.1806200462
0.8849873362	0.7182036675	-6.2168123611
1.805131126	0.7181709965	-6.179316831
-0.0054434617	1.4434128902	-6.1598366584
0.8871919727	1.4573323797	-6.1999302041
1.7796997378	1.4409918655	-6.1610031758

SCALARS	theta	float 1
LOOKUP_TABLE	default
300.2216108388
300.2637987184
300.2242097223
300.242058181
300.2801773367
300.2419228332
300.2246410653
300.2598832483
300.2245125463
305.2121049387
305.2299066281
305.2118635412
305.2201210873
305.2387073473
305.2202546278
305.2112276466
305.2301109104
305.211224488
310.5741018367
310.5753543326
310.5740406591
310.5723993791
310.5736929156
310.5723449401
310.5742731648
310.5753598172
310.5743134012

SCALARS	sig_11	float	1
LOOKUP_TABLE	default
12.6834729127
20.4563439102
13.3690222245
18.5718279273
25.4174278338
18.2426835139
12.9684343537
19.5283217381
13.0262879988
-6.4613952819
-3.2614015711
-6.5110884237
-3.9523660953
-0.6455837432
-3.9332843391
-6.6529816342
-3.3590656871
-6.6632180394
-11.9553467256
-11.8176743214
-11.9408911582
-12.1075315751
-11.9484057579
-12.1124484813
-11.9205715007
-11.8063780003
-11.9155738203

SCALARS	sig_22	float	1
LOOKUP_TABLE	default
8.279068275
15.5154582497
8.8135940882
14.6504213382
20.5457969725
14.6438358172
9.5593623891
14.3471146397
9.5967627098
-5.4818874815
-3.2979933988
-5.5227082737
-2.8972259566
-0.5758875199
-2.8960100925
-5.5950860752
-3.2299149283
-5.596943129
-8.5663826799
-8.4556606149
-8.5561953451
-8.8290166229
-8.712090301
-8.82477582
-8.5234561172
-8.4818509006
-8.5241532963

SCALARS	sig_33	float	1
LOOKUP_TABLE	default
20.5544139188
39.6669732866
20.9031617799
34.6797195872
53.1750283104
34.5579579299
21.0888854948
39.1300861217
21.0941171036
-8.7911339909
0.3250601856
-8.8317034355
-2.3832853186
6.8791013736
-2.3814607204
-8.8552694604
0.3616036862
-8.8641548774
-34.7589125374
-34.3288861297
-34.7778311199
-35.5814455459
-35.0380348122
-35.5693975692
-34.766385097
-34.3160465862
-34.7508466527

SCALARS vonMises	float	1
LOOKUP_TABLE	default
52.5366144935
39.433761834
52.1781220088
42.4374536366
27.6414829415
42.6206964647
52.0857200344
40.2669870962
52.1295576161
34.6759825474
31.6376339717
34.6046022201
33.0188115558
30.667554618
33.0535486446
34.5848508171
31.7747146135
34.5909943065
36.0036351751
36.2245345364
36.0756503218
36.3094990683
36.4851276009
36.2820809474
36.1231693611
36.1761965721
36.118022808
