# vtk DataFile Version 2.0
Results
ASCII
DATASET UNSTRUCTURED_GRID
POINTS         27           float
0.0	0.0	0.0	
50.0	0.0	0.0	
100.0	0.0	0.0	
0.0	40.0	0.0	
50.0	40.0	0.0	
100.0	40.0	0.0	
0.0	80.0	0.0	
50.0	80.0	0.0	
100.0	80.0	0.0	
0.0	0.0	70.0	
50.0	0.0	70.0	
100.0	0.0	70.0	
0.0	40.0	70.0	
50.0	40.0	70.0	
100.0	40.0	70.0	
0.0	80.0	70.0	
50.0	80.0	70.0	
100.0	80.0	70.0	
0.0	0.0	140.0	
50.0	0.0	140.0	
100.0	0.0	140.0	
0.0	40.0	140.0	
50.0	40.0	140.0	
100.0	40.0	140.0	
0.0	80.0	140.0	
50.0	80.0	140.0	
100.0	80.0	140.0	

CELLS	8	72
 8	0	1	4	3	9	10	13	12	
 8	1	2	5	4	10	11	14	13	
 8	4	5	8	7	13	14	17	16	
 8	3	4	7	6	12	13	16	15	
 8	9	10	13	12	18	19	22	21	
 8	10	11	14	13	19	20	23	22	
 8	13	14	17	16	22	23	26	25	
 8	12	13	16	15	21	22	25	24	

CELL_TYPES	8
 12
 12
 12
 12
 12
 12
 12
 12

POINT_DATA	27
VECTORS	u 	float 
0.0	0.0	0.0
-0.0079023079	0.0	0.0
-0.0154175196	0.0	0.0
0.0	-0.0083538632	0.0
-0.0079098078	-0.0083817738	0.0
-0.0160970297	-0.008219551	0.0
0.0	-0.0159185233	0.0
-0.0080337149	-0.0174254584	0.0
-0.0159477891	-0.0157730011	0.0
-0.0306185682	-0.027159618	-0.0022823719
-0.0078634298	-0.0260545317	0.0125956516
0.0147992351	-0.0269666866	-0.0022741517
-0.0305777206	-0.0084081171	0.0081682751
-0.0079470324	-0.0083653069	0.02313328
0.0147518688	-0.0082463856	0.0081526725
-0.0306808021	0.0101596532	-0.0022255647
-0.0079989616	0.0095013195	0.0126389515
0.0146509126	0.0103224446	-0.0022426852
-0.0766454341	-0.0652173747	0.0603422227
-0.0078732498	-0.065419062	0.0771803211
0.0609426235	-0.0650652686	0.0603214912
-0.0768393937	-0.0084793292	0.0714771323
-0.0079273966	-0.0083724205	0.0885887418
0.0609527728	-0.0083119021	0.0714754179
-0.0768102669	0.0483452456	0.0603654919
-0.0079980772	0.0485915906	0.0772453121
0.0608280868	0.0485086658	0.0603558121

VECTORS	v 	float 
0.0	0.0	0.0
7.03351e-05	0.0	0.0
0.0001363845	0.0	0.0
0.0	6.5299e-05	0.0
6.31197e-05	5.77807e-05	0.0
0.0001297502	6.46191e-05	0.0
0.0	0.0001233854	0.0
7.26971e-05	0.0001212569	0.0
0.0001433688	0.0001223293	0.0
3.35973e-05	4.03741e-05	0.000116712
6.56232e-05	2.78395e-05	6.14652e-05
9.88854e-05	3.80556e-05	0.0001163468
2.7268e-05	6.16872e-05	8.18634e-05
6.83037e-05	6.25689e-05	2.81833e-05
0.0001081513	5.9685e-05	8.23498e-05
3.44411e-05	8.48335e-05	0.0001159155
6.70914e-05	9.55505e-05	5.98781e-05
0.000100328	8.30572e-05	0.0001157266
0.0002023324	0.0001743944	5.75371e-05
6.68315e-05	0.000165034	-3.18384e-05
-6.9152e-05	0.0001725806	5.68899e-05
0.000185805	6.39449e-05	-2.7171e-06
6.68022e-05	6.22696e-05	-8.98101e-05
-5.16591e-05	6.18915e-05	-1.8998e-06
0.0002045993	-4.70665e-05	5.60505e-05
6.84642e-05	-3.98387e-05	-3.25731e-05
-6.77954e-05	-4.92966e-05	5.54346e-05

VECTORS	a 	float 
0.0	0.0	0.0
0.8944288034	0.0	0.0
1.7862216514	0.0	0.0
0.0	0.7206839214	0.0
0.8868802323	0.7126823399	0.0
1.7759886695	0.7205364433	0.0
0.0	1.43717513	0.0
0.8963913712	1.4285136695	0.0
1.7912674436	1.436881059	0.0
-0.0038554067	0.0063422714	-3.0727140626
0.8897477637	-0.0019552932	-3.0842322079
1.7841832141	0.0048436377	-3.0731294202
-0.0092970823	0.7166204053	-3.0778438386
0.8921763361	0.7177916646	-3.0871108121
1.792801822	0.7152937542	-3.0774560285
-0.003249924	1.4280240847	-3.0733231582
0.8906253839	1.4365330151	-3.0854730158
1.7849767915	1.4268706408	-3.0736160955
-0.0060709239	-0.0030477297	-6.1580761242
0.8910592098	-0.0144840747	-6.1838458283
1.7879316926	-0.0040964606	-6.1588806809
-0.0227575205	0.7185441653	-6.1729703932
0.8907132459	0.7173017923	-6.1950539547
1.8045197612	0.7173348137	-6.1721727379
-0.0047120062	1.439885323	-6.1593640871
0.8920183654	1.4493968951	-6.1842550826
1.788695803	1.4385190671	-6.1600904152

SCALARS	theta	float 1
LOOKUP_TABLE	default
298.0243635614
298.0766567313
298.0274724691
298.0475854281
298.0946696503
298.0476485005
298.0285055139
298.0718090581
298.0284610708
304.7570524844
304.800531076
304.7566528167
304.7770067096
304.8214826191
304.7770902595
304.7560687956
304.8010332122
304.7560607268
313.5555776185
313.6015416482
313.5554960949
313.575726088
313.6217439913
313.5756301128
313.5558921921
313.6015805037
313.5558721941

SCALARS	sig_11	float	1
LOOKUP_TABLE	default
14.979213858
26.6374461108
15.9903742064
23.751917542
34.0331112883
23.2737335873
15.400559828
25.2464969158
15.4761493861
-6.4046400798
-1.4108683114
-6.4762719451
-2.3649127799
2.7846088414
-2.3368539102
-6.6899295905
-1.5578497128
-6.7045234359
-21.3573627652
-20.7875287378
-21.3365032584
-21.0111232449
-20.4076588999
-21.0179124373
-21.3056301422
-20.7700916646
-21.2982268694

SCALARS	sig_22	float	1
LOOKUP_TABLE	default
9.1198373212
19.9741262885
9.9188552927
18.623468621
27.4785609974
18.6209527966
11.0225469002
18.2296008187
11.0799134134
-5.6078098851
-2.1743695513
-5.666163372
-1.4074171309
2.2281271705
-1.4048822326
-5.7771601735
-2.0753894958
-5.77908424
-15.7027124179
-15.2589154255
-15.6883951809
-15.4174386996
-14.9624075741
-15.4112862016
-15.6395308813
-15.2978818293
-15.6408389861

SCALARS	sig_33	float	1
LOOKUP_TABLE	default
25.1621491245
53.7191884946
25.6835161163
46.1276520282
73.7496161697
45.9496373521
25.9590756976
52.9115116578
25.9616207374
-8.3296702075
6.3741079603
-8.3877022158
2.3175047172
17.2313810166
2.3202076911
-8.4250622149
6.4261568285
-8.438711413
-60.2112803774
-57.4125245329
-60.2394606171
-59.1656946125
-56.1966657058
-59.1477324105
-60.2216047249
-57.3932474102
-60.198984986

SCALARS vonMises	float	1
LOOKUP_TABLE	default
70.6242921394
53.0662608148
70.1034403756
57.6500143768
38.7671163438
57.9129391982
69.9809740282
54.3070948092
70.0507378754
52.193563475
47.8830156992
52.1060917277
49.8072990116
46.8136146175
49.847013046
52.0816000728
48.0260078113
52.0907865007
59.2011257828
58.6434732722
59.3066033681
59.0556584126
58.4462292342
59.0167976668
59.378529765
58.5698903222
59.3697274723
