# vtk DataFile Version 2.0
Results
ASCII
DATASET UNSTRUCTURED_GRID
POINTS         27           float
0.0	0.0	0.0	
50.0	0.0	0.0	
100.0	0.0	0.0	
0.0	40.0	0.0	
50.0	40.0	0.0	
100.0	40.0	0.0	
0.0	80.0	0.0	
50.0	80.0	0.0	
100.0	80.0	0.0	
0.0	0.0	70.0	
50.0	0.0	70.0	
100.0	0.0	70.0	
0.0	40.0	70.0	
50.0	40.0	70.0	
100.0	40.0	70.0	
0.0	80.0	70.0	
50.0	80.0	70.0	
100.0	80.0	70.0	
0.0	0.0	140.0	
50.0	0.0	140.0	
100.0	0.0	140.0	
0.0	40.0	140.0	
50.0	40.0	140.0	
100.0	40.0	140.0	
0.0	80.0	140.0	
50.0	80.0	140.0	
100.0	80.0	140.0	

CELLS	8	72
 8	0	1	4	3	9	10	13	12	
 8	1	2	5	4	10	11	14	13	
 8	4	5	8	7	13	14	17	16	
 8	3	4	7	6	12	13	16	15	
 8	9	10	13	12	18	19	22	21	
 8	10	11	14	13	19	20	23	22	
 8	13	14	17	16	22	23	26	25	
 8	12	13	16	15	21	22	25	24	

CELL_TYPES	8
 12
 12
 12
 12
 12
 12
 12
 12

POINT_DATA	27
VECTORS	u 	float 
0.0	0.0	0.0
-0.0149617126	0.0	0.0
-0.0294871431	0.0	0.0
0.0	-0.0122744139	0.0
-0.0149924747	-0.0123068209	0.0
-0.0302902709	-0.0120724995	0.0
0.0	-0.0234460526	0.0
-0.0151599121	-0.0255336706	0.0
-0.0302361037	-0.0231993457	0.0
-0.0248596301	-0.0187356591	-0.0200806592
-0.0149161055	-0.0168261312	0.0011155687
-0.0050810785	-0.0184499609	-0.0200775883
-0.0247741663	-0.012354157	-0.0058180646
-0.0150342481	-0.0122860745	0.0153996265
-0.0052209472	-0.012113317	-0.0058483295
-0.0249638853	-0.0062278041	-0.0199944002
-0.015117593	-0.0074960768	0.0011857164
-0.0052967065	-0.0059872368	-0.0200231342
-0.1161164925	-0.0984546195	0.0432565982
-0.0149216735	-0.0981252706	0.0789300435
0.0863263008	-0.0982273792	0.043220832
-0.1160868227	-0.0124612231	0.0690994327
-0.0150055842	-0.0123041537	0.1050656517
0.086041192	-0.0122126289	0.0690893405
-0.116357899	0.0736526201	0.0433009932
-0.0151077502	0.073400296	0.0790302921
0.0861539116	0.0738951088	0.0432795201

VECTORS	v 	float 
0.0	0.0	0.0
-1.5885e-05	0.0	0.0
-2.9918e-05	0.0	0.0
0.0	-5.11516e-05	0.0
-2.31881e-05	-6.64536e-05	0.0
-4.77882e-05	-5.33157e-05	0.0
0.0	-0.0001075083	0.0
-1.5222e-05	-0.0001284667	0.0
-2.67727e-05	-0.0001115881	0.0
-0.0002047079	-0.0002443076	0.0001276704
-2.10165e-05	-0.0002641209	8.14582e-05
0.0001622921	-0.000246493	0.0001273793
-0.0002056237	-5.98067e-05	0.0001070212
-1.85963e-05	-5.76619e-05	6.98077e-05
0.0001686719	-6.15651e-05	0.0001085992
-0.0002037551	0.0001259554	0.0001269734
-1.93799e-05	0.0001473875	8.09769e-05
0.0001640789	0.0001244928	0.0001268124
0.0003279371	0.000280419	0.0002335987
-2.01973e-05	0.0002390922	-4.57e-05
-0.0003684215	0.0002787655	0.0002338753
0.0003009898	-5.72825e-05	1.14988e-05
-2.03168e-05	-5.93207e-05	-0.0002597657
-0.0003414836	-5.90995e-05	1.23705e-05
0.0003297158	-0.0003954351	0.0002325851
-1.88966e-05	-0.0003571213	-4.59137e-05
-0.0003673	-0.0003973072	0.0002328785

VECTORS	a 	float 
0.0	0.0	0.0
0.8969507634	0.0	0.0
1.7932229715	0.0	0.0
0.0	0.7177027567	0.0
0.8936151819	0.7140800681	0.0
1.787800529	0.7176748732	0.0
0.0	1.4340096108	0.0
0.8977597164	1.4291584349	0.0
1.7951258167	1.4339534148	0.0
0.0031761728	0.0026571076	-3.0795759958
0.8949102705	-0.0005031716	-3.0828224118
1.7868857102	0.0021099062	-3.0797664985
0.0013572863	0.7158196369	-3.0803240636
0.8959268536	0.716358442	-3.0823934702
1.7902458552	0.7153226431	-3.0801557912
0.0034391167	1.429360243	-3.0797970324
0.8952204564	1.4329064489	-3.0832827633
1.7871521178	1.4289139012	-3.0799458298
-0.003933835	-0.0025590118	-6.1561151248
0.8954764447	-0.0085161008	-6.1696047438
1.7948398797	-0.0029509563	-6.1564741994
-0.0110991909	0.7165915128	-6.1644913473
0.8953074201	0.7161056973	-6.1761132235
1.8017874703	0.716151849	-6.1641450808
-0.0034629526	1.435672134	-6.1565934652
0.8958306773	1.4408052963	-6.1697426181
1.7951309046	1.4351840028	-6.1569212408

SCALARS	theta	float 1
LOOKUP_TABLE	default
297.327018511
297.3279684342
297.3260477659
297.3139758557
297.3105935012
297.3164981937
297.3321320376
297.3236324985
297.330828103
301.5744730419
301.7107429251
301.5739138058
301.6665978827
301.8031088945
301.6658589412
301.5739298698
301.712149241
301.5741180909
320.1550820044
320.461425082
320.1553823553
320.3638478265
320.6706543144
320.3641346754
320.1555065322
320.4611603849
320.1553099405

SCALARS	sig_11	float	1
LOOKUP_TABLE	default
-8.4067598166
8.8841461959
-7.1101211322
3.9259308365
19.3883876981
3.4049115997
-7.8571783511
6.8859610871
-7.8648997374
14.7200113578
24.4643967734
14.6368743595
22.9481725401
32.8851928294
22.980077026
14.3171332827
24.2520117122
14.3059636098
-58.0955901476
-53.082111783
-58.0763757102
-53.0324919814
-47.9658144434
-53.0398780506
-58.0208415626
-53.0530997584
-58.0161236048

SCALARS	sig_22	float	1
LOOKUP_TABLE	default
-11.347389557
4.7383290412
-10.1844239893
2.0264612372
15.3134880522
2.1348486518
-8.6981186611
2.2698512071
-8.5726488338
11.0733100888
17.890121864
11.0117999412
19.6865887669
26.7683835271
19.6975253255
10.8328094826
18.0232925083
10.8430071237
-44.966125038
-41.3371569242
-44.9567645112
-39.4856506252
-35.8353271733
-39.4809060778
-44.8774625117
-41.3889324066
-44.8860422417

SCALARS	sig_33	float	1
LOOKUP_TABLE	default
-5.9899131439
35.4629654277
-5.2605501552
23.0207921973
63.0935669518
22.8223974742
-4.8781903075
34.3015731076
-4.903775354
23.6913055947
53.8927837217
23.6218652875
47.1378600795
77.5793600441
47.1377928778
23.5588292935
53.9603701384
23.5390187004
-149.5278460678
-128.0421464185
-149.5741502148
-130.8997847705
-109.1759468404
-130.8762414907
-149.5351867062
-128.0113418954
-149.5114884408

SCALARS vonMises	float	1
LOOKUP_TABLE	default
44.2180914422
35.3750879218
43.6781966337
41.5483825382
39.2621354275
41.8419759181
43.8790451471
37.2563678082
44.0405877513
91.51942252
87.5396735548
91.7834305375
86.865036967
80.3757317106
86.8256890748
91.9286152946
87.199229189
91.926983899
126.3674862754
118.636847435
126.5013457472
121.7100946438
114.3543852832
121.6722133976
126.6094783027
118.5268083869
126.5884099317
