# vtk DataFile Version 2.0
Results
ASCII
DATASET UNSTRUCTURED_GRID
POINTS         27           float
0.0	0.0	0.0	
50.0	0.0	0.0	
100.0	0.0	0.0	
0.0	40.0	0.0	
50.0	40.0	0.0	
100.0	40.0	0.0	
0.0	80.0	0.0	
50.0	80.0	0.0	
100.0	80.0	0.0	
0.0	0.0	70.0	
50.0	0.0	70.0	
100.0	0.0	70.0	
0.0	40.0	70.0	
50.0	40.0	70.0	
100.0	40.0	70.0	
0.0	80.0	70.0	
50.0	80.0	70.0	
100.0	80.0	70.0	
0.0	0.0	140.0	
50.0	0.0	140.0	
100.0	0.0	140.0	
0.0	40.0	140.0	
50.0	40.0	140.0	
100.0	40.0	140.0	
0.0	80.0	140.0	
50.0	80.0	140.0	
100.0	80.0	140.0	

CELLS	8	72
 8	0	1	4	3	9	10	13	12	
 8	1	2	5	4	10	11	14	13	
 8	4	5	8	7	13	14	17	16	
 8	3	4	7	6	12	13	16	15	
 8	9	10	13	12	18	19	22	21	
 8	10	11	14	13	19	20	23	22	
 8	13	14	17	16	22	23	26	25	
 8	12	13	16	15	21	22	25	24	

CELL_TYPES	8
 12
 12
 12
 12
 12
 12
 12
 12

POINT_DATA	27
VECTORS	u 	float 
0.0	0.0	0.0
-0.0047117548	0.0	0.0
-0.0090717014	0.0	0.0
0.0	-0.0057300319	0.0
-0.0047177006	-0.0057551458	0.0
-0.0096876843	-0.0056096873	0.0
0.0	-0.0107511066	0.0
-0.0048292456	-0.012105417	0.0
-0.0095482113	-0.0106220174	0.0
-0.0284465159	-0.0254191049	0.0018999944
-0.0046765122	-0.0244359591	0.0152320291
0.0190097147	-0.0252463744	0.0019077425
-0.0284173585	-0.0057783474	0.0112965677
-0.0047516095	-0.0057402815	0.0247109141
0.0189762552	-0.005633539	0.0112828715
-0.0285015662	0.0136972368	0.00195039
-0.0047978474	0.0131145167	0.0152700613
0.018876466	0.0138430899	0.001935131
-0.0682808747	-0.0581323816	0.0624463277
-0.004685729	-0.0583289668	0.0768877382
0.0589489592	-0.0579964124	0.0624280111
-0.0684798897	-0.0058415585	0.0718804293
-0.0047339966	-0.0057458425	0.0865711987
0.0589829703	-0.0056917884	0.0718792485
-0.0684283122	0.0465269502	0.0624660965
-0.0047973172	0.0467631249	0.0769451706
0.0588465606	0.0466732024	0.0624577728

VECTORS	v 	float 
0.0	0.0	0.0
7.80833e-05	0.0	0.0
0.000158925	0.0	0.0
0.0	5.66382e-05	0.0
8.48135e-05	6.2825e-05	0.0
0.0001672159	5.63643e-05	0.0
0.0	0.0001161523	0.0
7.63071e-05	0.0001236057	0.0
0.0001546204	0.0001158904	0.0
6.63183e-05	3.85633e-05	7.96377e-05
8.21945e-05	4.53583e-05	6.0731e-05
9.71885e-05	3.97209e-05	7.99981e-05
7.33324e-05	5.96801e-05	6.428e-05
8.00953e-05	5.87786e-05	4.38551e-05
8.77848e-05	6.07299e-05	6.40711e-05
6.58643e-05	7.99595e-05	8.01378e-05
8.15656e-05	7.29269e-05	6.20141e-05
9.6677e-05	8.08212e-05	8.04159e-05
0.000186481	0.0001559854	4.45052e-05
8.10399e-05	0.0001652253	1.74004e-05
-2.41286e-05	0.0001568889	4.53885e-05
0.0002027432	5.8016e-05	2.22744e-05
8.13515e-05	5.8983e-05	-8.1906e-06
-4.04192e-05	5.90714e-05	2.15383e-05
0.000185216	-3.98502e-05	4.57873e-05
8.01499e-05	-4.74461e-05	1.7746e-05
-2.4827e-05	-3.85928e-05	4.65555e-05

VECTORS	a 	float 
0.0	0.0	0.0
-0.8936591538	0.0	0.0
-1.7840673368	0.0	0.0
0.0	-0.7215421231	0.0
-0.8849114689	-0.7123752183	0.0
-1.7725682499	-0.7213644291	0.0
0.0	-1.4380316182	0.0
-0.8959772684	-1.4285584885	0.0
-1.7900817429	-1.4376779141	0.0
0.0058599189	-0.0075614917	3.0703290843
-0.8882207967	0.0023659255	3.0847153353
-1.7833180527	-0.005767398	3.0708068155
0.0124455406	-0.7169137881	3.0770017348
-0.8910592828	-0.7182375004	3.0888854923
-1.7935320208	-0.7153274764	3.0765567191
0.0051450018	-1.4276198061	3.0710487028
-0.8892759262	-1.4376244238	3.0862031558
-1.7842766985	-1.4262421499	3.0713818086
0.0067292985	0.0031416357	6.1581656012
-0.8897362132	0.0161215852	6.1879696767
-1.7858786809	0.0044208657	6.1591032112
0.0261872305	-0.7191726161	6.1752703767
-0.8893597421	-0.7177055931	6.2009123678
-1.8053223792	-0.7176991634	6.1743401396
0.0050692981	-1.441179906	6.1596912127
-0.8909099433	-1.4519134424	6.1884709471
-1.7868171474	-1.4395166457	6.1605378823

SCALARS	theta	float 1
LOOKUP_TABLE	default
298.6558446259
298.7067263493
298.6589210673
298.6793930363
298.7252975831
298.6793391697
298.6596974256
298.7020506035
298.6596121138
304.9783290824
305.0104167499
304.9779853372
304.9928427311
305.0258837047
304.9929622645
304.9773459565
305.0108018353
304.9773401992
312.533486295
312.5567471614
312.5333999995
312.5421695704
312.5654830931
312.5420800571
312.5337517585
312.556784785
312.5337562356

SCALARS	sig_11	float	1
LOOKUP_TABLE	default
15.0226055659
25.4399472811
15.9339123798
22.8861650229
32.0664325288
22.4517471466
15.4011300236
24.1960455377
15.4737826551
-7.0572269669
-2.6754748577
-7.122397605
-3.5605932937
0.9620889338
-3.5352233056
-7.3130503567
-2.8068134756
-7.326471039
-17.6854228341
-17.3234168807
-17.6663549234
-17.6079383686
-17.2163771582
-17.6142018751
-17.6390888396
-17.3080318571
-17.6323301824

SCALARS	sig_22	float	1
LOOKUP_TABLE	default
9.4853469928
19.1833165012
10.200337268
18.0004965549
25.906241069
17.9945937679
11.1928622401
17.6205331126
11.2433127775
-6.0725742091
-3.0707591581
-6.1258901582
-2.4497628267
0.7342535264
-2.4478184121
-6.2241885928
-2.9812448386
-6.226347109
-12.86824241
-12.5850990695
-12.8549797938
-12.8854810792
-12.5929607499
-12.8798573468
-12.8114054446
-12.6201256149
-12.8123788915

SCALARS	sig_33	float	1
LOOKUP_TABLE	default
24.7965995932
50.3540391809
25.2634650466
43.6185711154
68.3431983853
43.4573037394
25.5104581547
49.6328543424
25.5148871182
-9.4129097708
3.3032325542
-9.4657988876
-0.3209026359
12.5864217996
-0.3184479537
-9.4984812082
3.350627547
-9.5105991135
-50.5206677935
-48.8956988053
-50.5458190576
-50.5101159382
-48.7328588708
-50.4939869829
-50.5303671808
-48.8785050652
-50.509759567

SCALARS vonMises	float	1
LOOKUP_TABLE	default
66.4446957776
49.8921095265
65.9724895541
53.962096251
35.7321386383
54.2013383794
65.8558287975
51.0035714712
65.9169595055
46.5441733424
42.5508347148
46.4576373655
44.3514688407
41.4615520114
44.391932201
46.4336996216
42.7049215737
46.4420718634
50.800738805
50.6473349102
50.896052918
50.9060071418
50.6977070457
50.8702713045
50.9603276386
50.5817785845
50.9527564674
