# vtk DataFile Version 2.0
Results
ASCII
DATASET UNSTRUCTURED_GRID
POINTS         27           float
0.0	0.0	0.0	
50.0	0.0	0.0	
100.0	0.0	0.0	
0.0	40.0	0.0	
50.0	40.0	0.0	
100.0	40.0	0.0	
0.0	80.0	0.0	
50.0	80.0	0.0	
100.0	80.0	0.0	
0.0	0.0	70.0	
50.0	0.0	70.0	
100.0	0.0	70.0	
0.0	40.0	70.0	
50.0	40.0	70.0	
100.0	40.0	70.0	
0.0	80.0	70.0	
50.0	80.0	70.0	
100.0	80.0	70.0	
0.0	0.0	140.0	
50.0	0.0	140.0	
100.0	0.0	140.0	
0.0	40.0	140.0	
50.0	40.0	140.0	
100.0	40.0	140.0	
0.0	80.0	140.0	
50.0	80.0	140.0	
100.0	80.0	140.0	

CELLS	8	72
 8	0	1	4	3	9	10	13	12	
 8	1	2	5	4	10	11	14	13	
 8	4	5	8	7	13	14	17	16	
 8	3	4	7	6	12	13	16	15	
 8	9	10	13	12	18	19	22	21	
 8	10	11	14	13	19	20	23	22	
 8	13	14	17	16	22	23	26	25	
 8	12	13	16	15	21	22	25	24	

CELL_TYPES	8
 12
 12
 12
 12
 12
 12
 12
 12

POINT_DATA	27
VECTORS	u 	float 
0.0	0.0	0.0
-0.0016274642	0.0	0.0
-0.0029380252	0.0	0.0
0.0	-0.0031342202	0.0
-0.0016330578	-0.0031574871	0.0
-0.0034933534	-0.0030266048	0.0
0.0	-0.0056340925	0.0
-0.0017322891	-0.0068478608	0.0
-0.0033645584	-0.0055194198	0.0
-0.0260167651	-0.0233485398	0.005677778
-0.0015961432	-0.0224730847	0.0176018431
0.0227491803	-0.0231942379	0.0056849292
-0.0259946459	-0.0031776067	0.0141001919
-0.0016631932	-0.0031435665	0.0261002943
0.0227242353	-0.0030482145	0.0140881501
-0.0260655638	0.0168454467	0.0057224406
-0.0017045553	0.0163281407	0.0176351605
0.0226297951	0.016975851	0.0057088245
-0.0608559418	-0.0518289862	0.0640889309
-0.0016044782	-0.0520129	0.0766402459
0.0576825233	-0.0517075228	0.0640727095
-0.0610481345	-0.0032335117	0.0722210081
-0.0016476088	-0.0031480423	0.0849975443
0.0577269034	-0.0030996668	0.0722202228
-0.0609876077	0.0454314568	0.0641057411
-0.0017041852	0.0456504858	0.0766909246
0.0575909503	0.0455622059	0.0640984828

VECTORS	v 	float 
0.0	0.0	0.0
6.85367e-05	0.0	0.0
0.0001322721	0.0	0.0
0.0	6.35023e-05	0.0
6.20535e-05	5.78343e-05	0.0
0.0001280557	6.31459e-05	0.0
0.0	0.0001203514	0.0
7.08704e-05	0.0001209225	0.0
0.0001390437	0.0001198157	0.0
4.69276e-05	5.62136e-05	9.16474e-05
6.44581e-05	4.29177e-05	4.47338e-05
8.33616e-05	5.42428e-05	9.12585e-05
3.89508e-05	6.09788e-05	6.19583e-05
6.69233e-05	6.17839e-05	1.64244e-05
9.35639e-05	5.93045e-05	6.22773e-05
4.75559e-05	6.7507e-05	9.08078e-05
6.56231e-05	7.90115e-05	4.31843e-05
8.4422e-05	6.60783e-05	9.0634e-05
0.0001728344	0.0001409298	3.43816e-05
6.57904e-05	0.0001314579	-3.01592e-05
-4.17958e-05	0.0001397911	3.36521e-05
0.0001560372	6.29501e-05	-4.9766e-06
6.54834e-05	6.1581e-05	-6.74113e-05
-2.44519e-05	6.1559e-05	-4.2538e-06
0.0001744709	-1.55681e-05	3.28831e-05
6.67882e-05	-7.6602e-06	-3.08433e-05
-4.10684e-05	-1.71759e-05	3.22316e-05

VECTORS	a 	float 
0.0	0.0	0.0
0.8941636866	0.0	0.0
1.7842149717	0.0	0.0
0.0	0.7225111046	0.0
0.8841611401	0.7123681543	0.0
1.7717919205	0.7223309057	0.0
0.0	1.4389284494	0.0
0.8969195898	1.4293485202	0.0
1.7914223145	1.4385533593	0.0
-0.0071392997	0.0090708256	-3.0689657553
0.8879454205	-0.0030839323	-3.0867256759
1.7842958217	0.0069399999	-3.0695069036
-0.0150578101	0.7174606155	-3.077266622
0.8912371377	0.7189169487	-3.0923308812
1.7962497277	0.7155839523	-3.0767809703
-0.0063078894	1.4274917593	-3.0698218986
0.8891917789	1.4394404669	-3.0885269912
1.7854156269	1.4258742421	-3.0701910668
-0.0035898954	-0.0021954443	-6.157457434
0.8897024811	-0.0168268627	-6.1925814989
1.7825785843	-0.0036876409	-6.1585452492
-0.0257731438	0.7200777168	-6.1769856826
0.8892735769	0.7183765678	-6.2075728353
1.8048488758	0.718345623	-6.175920453
-0.0016145234	1.4419675222	-6.1592644444
0.8910775116	1.4540579616	-6.1932098224
1.7836669337	1.4399996542	-6.1602493192

SCALARS	theta	float 1
LOOKUP_TABLE	default
299.2878896752
299.3360202118
299.2908439806
299.3107440882
299.3541537679
299.3106256782
299.2914839991
299.3315476413
299.2913741042
305.1070002405
305.1317421325
305.1066957188
305.1181608187
305.1438163913
305.1182945615
305.1060272143
305.1320544144
305.1060228456
311.6801378513
311.6907007574
311.6800616742
311.6826597532
311.6932658401
311.6825836504
311.6803736246
311.6907185522
311.6803966478

SCALARS	sig_11	float	1
LOOKUP_TABLE	default
14.3465217481
23.6570546136
15.1649864765
21.3892928362
29.5902949767
20.9978907632
14.687359979
22.5443327614
14.7543445697
-7.058074859
-3.1868867835
-7.1169744691
-3.9947109205
0.0034353426
-3.9719713744
-7.2873318395
-3.304195493
-7.2994343797
-15.0217905557
-14.7809677207
-15.0045669617
-15.083247215
-14.8163426632
-15.088959049
-14.9801345205
-14.7673931355
-14.9741049028

SCALARS	sig_22	float	1
LOOKUP_TABLE	default
9.2261094678
17.8970342699
9.8663731204
16.847788661
23.9132280409
16.8412691321
10.7571613364
16.497785774
10.8021012006
-6.024536392
-3.3763494543
-6.0728515594
-2.8609898331
-0.049023525
-2.8594664684
-6.1602229508
-3.2955984935
-6.1623055644
-10.846739218
-10.6562965846
-10.8346704557
-11.0178440192
-10.819422878
-11.0127480202
-10.7955835662
-10.6877205658
-10.7964217609

SCALARS	sig_33	float	1
LOOKUP_TABLE	default
23.4406824018
46.2967806547
23.8587255586
40.3048312529
62.4176110199
40.1597375782
24.0808195523
45.6519699655
24.0858695217
-9.5215695125
1.5993678231
-9.5695190593
-1.6381888151
9.6556332379
-1.6360968902
-9.5982980777
1.6423390082
-9.6090277375
-43.2641712559
-42.3085374446
-43.2866860677
-43.7791757472
-42.6875669316
-43.7646847458
-43.2728177209
-42.2933170209
-43.2542851077

SCALARS vonMises	float	1
LOOKUP_TABLE	default
61.2117741741
45.9516492536
60.7873334853
49.5665817854
32.5252381944
49.7808210657
60.679343794
46.9437532187
60.7337968935
41.5286591186
37.9139424338
41.4475247889
39.5498361064
36.8444166827
39.5881549138
41.4249078507
38.0651156509
41.4328989695
44.1684191919
44.2360912912
44.2540483121
44.3983951372
44.4145810396
44.3660438641
44.3113603494
44.1778551768
44.3048133355
