# vtk DataFile Version 2.0
Results
ASCII
DATASET UNSTRUCTURED_GRID
POINTS         27           float
0.0	0.0	0.0	
50.0	0.0	0.0	
100.0	0.0	0.0	
0.0	40.0	0.0	
50.0	40.0	0.0	
100.0	40.0	0.0	
0.0	80.0	0.0	
50.0	80.0	0.0	
100.0	80.0	0.0	
0.0	0.0	70.0	
50.0	0.0	70.0	
100.0	0.0	70.0	
0.0	40.0	70.0	
50.0	40.0	70.0	
100.0	40.0	70.0	
0.0	80.0	70.0	
50.0	80.0	70.0	
100.0	80.0	70.0	
0.0	0.0	140.0	
50.0	0.0	140.0	
100.0	0.0	140.0	
0.0	40.0	140.0	
50.0	40.0	140.0	
100.0	40.0	140.0	
0.0	80.0	140.0	
50.0	80.0	140.0	
100.0	80.0	140.0	

CELLS	8	72
 8	0	1	4	3	9	10	13	12	
 8	1	2	5	4	10	11	14	13	
 8	4	5	8	7	13	14	17	16	
 8	3	4	7	6	12	13	16	15	
 8	9	10	13	12	18	19	22	21	
 8	10	11	14	13	19	20	23	22	
 8	13	14	17	16	22	23	26	25	
 8	12	13	16	15	21	22	25	24	

CELL_TYPES	8
 12
 12
 12
 12
 12
 12
 12
 12

POINT_DATA	27
VECTORS	u 	float 
0.0	0.0	0.0
0.0028612992	0.0	0.0
0.0057273944	0.0	0.0
0.0	0.0035559803	0.0
0.0028441133	0.0035292688	0.0
0.005680819	0.0036019374	0.0
0.0	0.0072869101	0.0
0.0028088692	0.0069228298	0.0
0.005574598	0.0073668726	0.0
0.006504178	0.0075991291	-0.0074425885
0.0028636811	0.0085359857	-0.0047337247
-0.0007791835	0.0076635386	-0.0074506359
0.0066455211	0.0035224854	-0.0058502176
0.0028398441	0.0035460977	-0.0032901388
-0.000965119	0.0035811648	-0.005865662
0.0064727624	-0.0005950475	-0.0074272476
0.0028168803	-0.0014028175	-0.0047066284
-0.000829657	-0.0005377576	-0.0074376065
-0.0165895931	-0.0143244438	-0.0088546605
0.002871362	-0.0130502929	0.0003090003
0.0223349447	-0.0142676171	-0.0088673309
-0.0161675612	0.0035002572	-0.0014453704
0.0028489983	0.0035333373	0.007625775
0.0218646449	0.0035585727	-0.001454822
-0.0166448681	0.0213428232	-0.0088355452
0.0028259643	0.0200982065	0.0003311375
0.0222935176	0.0213995213	-0.008847128

VECTORS	v 	float 
0.0	0.0	0.0
-0.0020844161	0.0	0.0
-0.0041708057	0.0	0.0
0.0	-0.0015485095	0.0
-0.0020918113	-0.0015481679	0.0
-0.0041823501	-0.0015428498	0.0
0.0	-0.0030800851	0.0
-0.0020877112	-0.003110158	0.0
-0.0041825368	-0.0030701328	0.0
0.000608039	0.0007199572	0.0073398766
-0.002087274	0.0008056281	0.0076105166
-0.0047820796	0.0007261194	0.0073389493
0.0006135426	-0.0015495489	0.0075023777
-0.0020881208	-0.0015478434	0.0077580905
-0.0047903302	-0.0015441494	0.0075002895
0.0006051901	-0.0038230674	0.0073413732
-0.0020919685	-0.0038970554	0.0076121706
-0.0047873212	-0.0038179335	0.0073401878
-0.0017055311	-0.0014726451	0.0153260243
-0.0020853801	-0.0013560846	0.0162375065
-0.0024650113	-0.0014672215	0.0153239059
-0.001679089	-0.0015517254	0.0160701557
-0.0020879837	-0.0015482925	0.0169737408
-0.0024969573	-0.0015461184	0.0160694851
-0.0017108491	-0.0016289587	0.0153276674
-0.002089625	-0.0017425527	0.0162390325
-0.0024688566	-0.0016235246	0.0153256889

VECTORS	a 	float 
0.0	0.0	0.0
-0.0854524426	0.0	0.0
-0.1708926083	0.0	0.0
0.0	-0.0686594398	0.0
-0.0854174305	-0.0686203082	0.0
-0.1708438598	-0.068671126	0.0
0.0	-0.1373380544	0.0
-0.0854521246	-0.1372248379	0.0
-0.1708844928	-0.1373590185	0.0
-0.0015948214	-0.0018366779	0.2934444588
-0.085434346	-0.0020214717	0.2929177773
-0.169277858	-0.0018446828	0.2934487511
-0.0016244381	-0.0686358039	0.29313301
-0.0854395957	-0.0686461978	0.2926333332
-0.169250753	-0.0686430175	0.2931356897
-0.0015908122	-0.1354315833	0.2934445069
-0.0854272387	-0.1352752872	0.2929171596
-0.1692690624	-0.1354388728	0.2934488505
0.0035997892	0.0030946191	0.5855996855
-0.0854422673	0.0028286551	0.5837178848
-0.1744841325	0.0030861879	0.5856084538
0.0035216282	-0.0686396475	0.5840662002
-0.0854358842	-0.0686415176	0.58218876
-0.174394135	-0.0686476854	0.5840638134
0.0036065522	-0.1403764749	0.5856021928
-0.0854362505	-0.1401088891	0.5837140896
-0.174478235	-0.1403834674	0.5856103038

SCALARS	theta	float 1
LOOKUP_TABLE	default
300.9165742588
300.8239095671
300.9119220326
300.8803368442
300.8136380199
300.8785672657
300.8978665461
300.8432723406
300.9001932749
298.8531400554
298.7031291826
298.8542567214
298.6992458981
298.5465159804
298.6996832171
298.8582122934
298.6989914325
298.8576515838
304.2212733295
303.9597003738
304.2210219907
303.940515772
303.6773204888
303.9401272081
304.2188437361
303.9615770453
304.2192277527

SCALARS	sig_11	float	1
LOOKUP_TABLE	default
-18.1466254696
-13.5082289637
-17.9777112495
-15.2554270185
-11.2025192511
-15.1981281835
-17.8532640439
-14.1394913721
-17.9882932967
9.7036806369
16.4941202286
9.6886152662
16.441095695
23.2185035116
16.4347517849
9.6089414821
16.4652706507
9.6154906561
-28.6182208536
-18.6185117192
-28.6178676368
-18.0687376354
-8.0299737438
-18.0624942791
-28.5842691921
-18.6219518576
-28.5915229433

SCALARS	sig_22	float	1
LOOKUP_TABLE	default
-15.6963591559
-11.540766949
-15.4257399208
-12.5569973362
-9.1905917169
-12.3870731034
-15.0293650123
-12.1887969288
-15.0061312202
7.2489863604
12.3378468993
7.2409740065
14.2872719053
19.3814053659
14.2893668849
7.1868893473
12.376107349
7.1996209021
-23.833537545
-16.1805464155
-23.837377751
-12.6718021326
-4.9849138318
-12.6675404529
-23.8024160569
-16.1997441266
-23.8140089055

SCALARS	sig_33	float	1
LOOKUP_TABLE	default
-36.8143492274
-29.1038591968
-36.663332111
-32.0122720424
-24.9624202296
-31.95719848
-36.3879852024
-29.5529471867
-36.4635041484
4.2301356325
16.275959197
4.2063792806
15.5232941274
27.5279813768
15.5095399516
4.1931551418
16.3036022915
4.1866931076
-68.6877392726
-51.2400992563
-68.6944331732
-50.8129018176
-33.2934922828
-50.7984547844
-68.6595745062
-51.2541568562
-68.6657986752

SCALARS vonMises	float	1
LOOKUP_TABLE	default
28.9933059138
24.367156039
29.1002748475
22.8004506535
15.5633100311
22.829009904
29.2508983062
24.1330001326
29.2265207668
39.8394468162
31.2026690342
39.8985852248
30.3542327951
17.3559904135
30.3632012422
39.9454007224
31.045001481
39.9295681166
43.0702153632
36.3725137281
43.0807653576
38.2553189477
31.2501363711
38.2529485775
43.1076653075
36.352863167
43.0982243105
