# vtk DataFile Version 2.0
Results
ASCII
DATASET UNSTRUCTURED_GRID
POINTS         27           float
0.0	0.0	0.0	
50.0	0.0	0.0	
100.0	0.0	0.0	
0.0	40.0	0.0	
50.0	40.0	0.0	
100.0	40.0	0.0	
0.0	80.0	0.0	
50.0	80.0	0.0	
100.0	80.0	0.0	
0.0	0.0	70.0	
50.0	0.0	70.0	
100.0	0.0	70.0	
0.0	40.0	70.0	
50.0	40.0	70.0	
100.0	40.0	70.0	
0.0	80.0	70.0	
50.0	80.0	70.0	
100.0	80.0	70.0	
0.0	0.0	140.0	
50.0	0.0	140.0	
100.0	0.0	140.0	
0.0	40.0	140.0	
50.0	40.0	140.0	
100.0	40.0	140.0	
0.0	80.0	140.0	
50.0	80.0	140.0	
100.0	80.0	140.0	

CELLS	8	72
 8	0	1	4	3	9	10	13	12	
 8	1	2	5	4	10	11	14	13	
 8	4	5	8	7	13	14	17	16	
 8	3	4	7	6	12	13	16	15	
 8	9	10	13	12	18	19	22	21	
 8	10	11	14	13	19	20	23	22	
 8	13	14	17	16	22	23	26	25	
 8	12	13	16	15	21	22	25	24	

CELL_TYPES	8
 12
 12
 12
 12
 12
 12
 12
 12

POINT_DATA	27
VECTORS	u 	float 
0.0	0.0	0.0
-0.0141862163	0.0	0.0
-0.0279599869	0.0	0.0
0.0	-0.0109073438	0.0
-0.0142257817	-0.0109375007	0.0
-0.0287368962	-0.0106919369	0.0
0.0	-0.0206694904	0.0
-0.0143971648	-0.0228292029	0.0
-0.0287409797	-0.0203973841	0.0
-0.0202588557	-0.013621541	-0.0223658156
-0.0141422202	-0.0114538298	-0.0004008069
-0.0081297	-0.0133191129	-0.0223658395
-0.0201995079	-0.0109904535	-0.0077795103
-0.0142652478	-0.0109169297	0.0141654952
-0.0082631446	-0.0107347011	-0.0078143914
-0.0203730696	-0.0086240779	-0.022274454
-0.0143560128	-0.0101200608	-0.0003256662
-0.0083575309	-0.008369009	-0.0223064269
-0.1221128603	-0.1035562537	0.0390287603
-0.0141445874	-0.1028817755	0.0792582638
0.0938755451	-0.10331449	0.0389890583
-0.1220499063	-0.0111036077	0.0686648083
-0.0142349741	-0.010937564	0.109160326
0.0935480872	-0.0108398183	0.0686513814
-0.1223676252	0.0814740303	0.0390776077
-0.0143423392	0.0808850454	0.0793645502
0.0936916403	0.0817312548	0.0390523615

VECTORS	v 	float 
0.0	0.0	0.0
-5.39583e-05	0.0	0.0
-0.0001051542	0.0	0.0
0.0	-9.39003e-05	0.0
-6.14455e-05	-0.000110188	0.0
-0.0001249994	-9.63531e-05	0.0
0.0	-0.0001933432	0.0
-5.32478e-05	-0.0002156449	0.0
-0.0001018798	-0.0001980413	0.0
-0.0002919519	-0.0003357024	0.0001271443
-5.92788e-05	-0.0003611468	8.15024e-05
0.0001727988	-0.0003381089	0.000126904
-0.0002916555	-0.0001031006	0.0001101342
-5.67501e-05	-0.000100874	7.49818e-05
0.0001785808	-0.0001050546	0.0001119006
-0.0002908528	0.0001308494	0.0001263901
-5.74549e-05	0.0001578822	8.09997e-05
0.0001747905	0.000129212	0.0001262711
0.0003476372	0.0003003497	0.0002801928
-5.85127e-05	0.0002479682	-4.80966e-05
-0.0004646929	0.0002984856	0.0002805805
0.0003197269	-0.0001004096	1.41038e-05
-5.85678e-05	-0.0001026275	-0.0003049166
-0.0004367803	-0.0001024376	1.50657e-05
0.0003495958	-0.000501666	0.0002791188
-5.70551e-05	-0.0004525439	-4.8341e-05
-0.0004634194	-0.0005037419	0.0002795294

VECTORS	a 	float 
0.0	0.0	0.0
0.8964893811	0.0	0.0
1.7922602831	0.0	0.0
0.0	0.7174568429	0.0
0.893609002	0.7147074075	0.0
1.7878128764	0.7175062255	0.0
0.0	1.4336962002	0.0
0.8972774487	1.4302606579	0.0
1.7940452606	1.4337877562	0.0
0.0027674783	0.0028831551	-3.0796261355
0.8947517478	0.000184094	-3.0826827942
1.7869854902	0.0024169574	-3.079789864
0.0010702892	0.7160768328	-3.080318856
0.8956373772	0.7164770253	-3.0826096908
1.7899570769	0.7156431401	-3.0802244421
0.0029997346	1.4296020984	-3.0798176539
0.8950028248	1.4325073785	-3.0831231685
1.7871857621	1.4292040963	-3.0799472707
-0.0040324617	-0.0028120498	-6.1570183218
0.895257797	-0.0072781673	-6.1677337542
1.7945076115	-0.0031482894	-6.1573733399
-0.0097944917	0.7167168659	-6.1635361271
0.8951141757	0.716324216	-6.1728010072
1.800083364	0.7163400255	-6.1632347969
-0.0036264105	1.436187945	-6.157443393
0.8955686708	1.4399851088	-6.1678750562
1.7947649151	1.4357672871	-6.1577699339

SCALARS	theta	float 1
LOOKUP_TABLE	default
297.7517082095
297.7302748778
297.7489645219
297.7262462617
297.7002657933
297.729486638
297.7574769645
297.7258262628
297.7553909284
300.603154647
300.7415948579
300.6026671534
300.7135407253
300.8519317239
300.7125530029
300.6025488732
300.7433558745
300.6029024805
321.5997965516
321.9409458943
321.6002029958
321.8618708095
322.2036490328
321.8623204571
321.6003320358
321.9404542274
321.6000360988

SCALARS	sig_11	float	1
LOOKUP_TABLE	default
-17.4829515935
0.772969115
-16.1868201798
-4.7428343737
11.6665133994
-5.2228203655
-16.9356037443
-1.3097684931
-16.9860114461
21.8865052525
33.1989050751
21.8056546565
31.2963605027
42.7981943764
31.3259387381
21.4687810767
32.9762323439
21.4602701718
-68.7235127076
-61.5529586187
-68.7068645525
-61.8805461191
-54.6535115548
-61.8874116008
-68.6461779501
-61.5209321987
-68.6430941809

SCALARS	sig_22	float	1
LOOKUP_TABLE	default
-18.9191813015
-1.9689923868
-17.698231782
-5.1040773109
8.9528713678
-4.9445008159
-16.1818767998
-4.532530246
-16.0328217716
16.8141914563
24.7092353581
16.7569914005
26.6198819486
34.7823288203
26.6335597268
16.5650023799
24.845952072
16.580017659
-53.4526708129
-48.3464731139
-53.4463913342
-46.104292241
-40.975582613
-46.1008476101
-53.3610854618
-48.3987391608
-53.3720765917

SCALARS	sig_33	float	1
LOOKUP_TABLE	default
-18.5136576663
24.8059500161
-17.7612383931
11.2794089898
53.1521192935
11.0971640517
-17.3704897866
23.5986763036
-17.4051935135
34.6256013261
68.9770586723
34.55606923
61.4098883122
95.9880720871
61.407277059
34.4900857448
69.0458185443
34.4685774546
-173.6725960896
-145.722020389
-173.7225982742
-149.235023224
-121.0400753289
-149.2108985122
-173.679280055
-145.6880933806
-173.6567369809

SCALARS vonMises	float	1
LOOKUP_TABLE	default
31.096391155
27.672360663
30.6709867576
32.5408697676
37.3832250034
32.8254159175
31.2729536967
29.6320030028
31.4883782814
107.0757417126
100.2750367279
107.4315428639
98.5679057907
88.6002923874
98.5150905572
107.6471337028
99.8155926134
107.6323520808
143.204603683
132.9516946413
143.3382305169
137.0506075175
127.3779217681
137.0166339927
143.4539326517
132.8360482269
143.4285470062
