# vtk DataFile Version 2.0
Results
ASCII
DATASET UNSTRUCTURED_GRID
POINTS         27           float
0.0	0.0	0.0	
50.0	0.0	0.0	
100.0	0.0	0.0	
0.0	40.0	0.0	
50.0	40.0	0.0	
100.0	40.0	0.0	
0.0	80.0	0.0	
50.0	80.0	0.0	
100.0	80.0	0.0	
0.0	0.0	70.0	
50.0	0.0	70.0	
100.0	0.0	70.0	
0.0	40.0	70.0	
50.0	40.0	70.0	
100.0	40.0	70.0	
0.0	80.0	70.0	
50.0	80.0	70.0	
100.0	80.0	70.0	
0.0	0.0	140.0	
50.0	0.0	140.0	
100.0	0.0	140.0	
0.0	40.0	140.0	
50.0	40.0	140.0	
100.0	40.0	140.0	
0.0	80.0	140.0	
50.0	80.0	140.0	
100.0	80.0	140.0	

CELLS	8	72
 8	0	1	4	3	9	10	13	12	
 8	1	2	5	4	10	11	14	13	
 8	4	5	8	7	13	14	17	16	
 8	3	4	7	6	12	13	16	15	
 8	9	10	13	12	18	19	22	21	
 8	10	11	14	13	19	20	23	22	
 8	13	14	17	16	22	23	26	25	
 8	12	13	16	15	21	22	25	24	

CELL_TYPES	8
 12
 12
 12
 12
 12
 12
 12
 12

POINT_DATA	27
VECTORS	u 	float 
0.0	0.0	0.0
-0.0076795665	0.0	0.0
-0.0149744682	0.0	0.0
0.0	-0.0081736003	0.0
-0.0076869024	-0.0082013109	0.0
-0.0156494958	-0.0080403095	0.0
0.0	-0.015563778	0.0
-0.0078099548	-0.017059728	0.0
-0.0155008571	-0.015419489	0.0
-0.0304833889	-0.0270573557	-0.0019770797
-0.0076409733	-0.0259613963	0.0127885874
0.0151095754	-0.0268659596	-0.0019688901
-0.0304435393	-0.0082274308	0.0083976532
-0.0077239709	-0.0081850428	0.0232500696
0.0150633933	-0.0080669962	0.0083822023
-0.0305450325	0.0104200989	-0.001920743
-0.0077754156	0.009767392	0.0128314951
0.0149624006	0.0105815947	-0.0019377307
-0.0760288235	-0.0646956145	0.0605086808
-0.0076508384	-0.0648973934	0.077158155
0.0607705449	-0.0645449079	0.0604881239
-0.0762235624	-0.0082980234	0.0715077654
-0.0077044396	-0.0081919822	0.0884291082
0.0607830541	-0.0081321056	0.0715061041
-0.0761921708	0.04818546	0.0605316818
-0.0077744794	0.0484314113	0.0772225895
0.060657116	0.0483474064	0.0605221015

VECTORS	v 	float 
0.0	0.0	0.0
7.93663e-05	0.0	0.0
0.0001615767	0.0	0.0
0.0	5.55856e-05	0.0
8.60597e-05	6.16329e-05	0.0
0.0001696293	5.52673e-05	0.0
0.0	0.0001139624	0.0
7.75908e-05	0.000121293	0.0
0.0001572969	0.0001136156	0.0
5.78987e-05	2.74442e-05	8.83133e-05
8.34425e-05	3.38959e-05	6.66191e-05
0.0001080834	2.85702e-05	8.86775e-05
6.48911e-05	5.85489e-05	7.15359e-05
8.13599e-05	5.76598e-05	4.84598e-05
9.87794e-05	5.95742e-05	7.1346e-05
5.74642e-05	8.88331e-05	8.88015e-05
8.284e-05	8.21292e-05	6.79013e-05
0.0001075987	8.9671e-05	8.90843e-05
0.0002082509	0.0001740494	5.73493e-05
8.22861e-05	0.0001827031	1.61945e-05
-4.34031e-05	0.0001749233	5.82512e-05
0.0002239972	5.69095e-05	2.39147e-05
8.26052e-05	5.78506e-05	-2.05116e-05
-5.91719e-05	5.79365e-05	2.31816e-05
0.0002070113	-6.01376e-05	5.86239e-05
8.14158e-05	-6.71757e-05	1.65315e-05
-4.4082e-05	-5.89071e-05	5.94136e-05

VECTORS	a 	float 
0.0	0.0	0.0
-0.8943749411	0.0	0.0
-1.7860710845	0.0	0.0
0.0	-0.7207436279	0.0
-0.8867429203	-0.7126607225	0.0
-1.7757501036	-0.720594002	0.0
0.0	-1.437234538	0.0
-0.8963623355	-1.4285164277	0.0
-1.791184464	-1.4369362541	0.0
0.0039958658	-0.0064265444	3.0725471233
-0.8896411808	0.0019847759	3.0842655464
-1.7841233574	-0.0049072576	3.0729668583
0.0095174552	-0.7166407013	3.0777848698
-0.8920983279	-0.7178225792	3.08723451
-1.7928533296	-0.7152958957	3.0773930142
0.0033827242	-1.4279963223	3.0731639236
-0.8905312136	-1.4366096131	3.0855235734
-1.7849284862	-1.4268272033	3.0734596914
0.0061157929	0.0030533841	6.1580814045
-0.890966819	0.0145974754	6.1841334614
-1.7877872276	0.0041182283	6.1588952634
0.0229957576	-0.7185878345	6.1731309342
-0.8906187597	-0.7173297739	6.1954635839
-1.8045745914	-0.7173600139	6.1723239803
0.0047358463	-1.4399743906	6.1593859335
-0.8919409829	-1.4495712353	6.1845491434
-1.7885635405	-1.4385873823	6.1601207028

SCALARS	theta	float 1
LOOKUP_TABLE	default
298.0673686095
298.1196453228
298.0704811805
298.0906723093
298.1377506877
298.0907242489
298.0714929037
298.1148049135
298.0714454577
304.7767298362
304.8192374929
304.7763344927
304.7962111773
304.83971413
304.7962981669
304.7757446737
304.8197305221
304.7757369662
313.4775330087
313.5214600684
313.4774505624
313.4966313833
313.5406121386
313.496535473
313.4778441455
313.5214992109
313.4778259898

SCALARS	sig_11	float	1
LOOKUP_TABLE	default
15.0181519915
26.5856965925
16.0222071472
23.7249498028
33.9254988368
23.2497917309
15.4364196232
25.2054450008
15.511910123
-6.4815426536
-1.5344430596
-6.5527249908
-2.4840214104
2.6177776758
-2.4561533948
-6.7647007917
-1.6802878456
-6.7792174741
-21.0579157215
-20.5066924637
-21.0371750346
-20.7363685236
-20.1518200394
-20.7431212276
-21.0065771205
-20.4894096887
-20.9992138016

SCALARS	sig_22	float	1
LOOKUP_TABLE	default
9.1757132426
19.9454348979
9.9686141177
18.6077130893
27.3932029905
18.6048544971
11.0643282638
18.2140767153
11.1211570915
-5.665059264
-2.2647471029
-5.7230675507
-1.509669452
2.0913199474
-1.5071899627
-5.8331235569
-2.1664434803
-5.8350750525
-15.4698215592
-15.0403816362
-15.4555675721
-15.2124844913
-14.771956491
-15.2063658813
-15.4070988299
-15.0790668792
-15.4083745994

SCALARS	sig_33	float	1
LOOKUP_TABLE	default
25.185973155
53.5244129543
25.7033968935
45.9967186967
73.4075635432
45.8198686238
25.97687617
52.7230411519
25.9796014918
-8.4520035053
6.096928944
-8.5096736239
2.0722455501
16.8299516297
2.0749247696
-8.5466868818
6.1486489083
-8.5602195377
-59.4301149062
-56.7366040268
-59.458067353
-58.4803607818
-55.6178839958
-58.4625296213
-59.4404052753
-56.7174814192
-59.4179187645

SCALARS vonMises	float	1
LOOKUP_TABLE	default
70.3909649592
52.8871930048
69.8735960595
57.4330556884
38.5682197495
57.6946202178
69.7514286497
54.1189386428
69.8206259252
51.7751727474
47.4829251213
51.6875798868
49.4012234856
46.411912413
49.4411059963
51.6631265513
47.627425609
51.6722436134
58.5397587741
58.0195020374
58.6445473403
58.4181855076
57.8454164546
58.3793997288
58.7159797203
57.9464353427
58.7072249393
