# vtk DataFile Version 2.0
Results
ASCII
DATASET UNSTRUCTURED_GRID
POINTS         27           float
0.0	0.0	0.0	
50.0	0.0	0.0	
100.0	0.0	0.0	
0.0	40.0	0.0	
50.0	40.0	0.0	
100.0	40.0	0.0	
0.0	80.0	0.0	
50.0	80.0	0.0	
100.0	80.0	0.0	
0.0	0.0	70.0	
50.0	0.0	70.0	
100.0	0.0	70.0	
0.0	40.0	70.0	
50.0	40.0	70.0	
100.0	40.0	70.0	
0.0	80.0	70.0	
50.0	80.0	70.0	
100.0	80.0	70.0	
0.0	0.0	140.0	
50.0	0.0	140.0	
100.0	0.0	140.0	
0.0	40.0	140.0	
50.0	40.0	140.0	
100.0	40.0	140.0	
0.0	80.0	140.0	
50.0	80.0	140.0	
100.0	80.0	140.0	

CELLS	8	72
 8	0	1	4	3	9	10	13	12	
 8	1	2	5	4	10	11	14	13	
 8	4	5	8	7	13	14	17	16	
 8	3	4	7	6	12	13	16	15	
 8	9	10	13	12	18	19	22	21	
 8	10	11	14	13	19	20	23	22	
 8	13	14	17	16	22	23	26	25	
 8	12	13	16	15	21	22	25	24	

CELL_TYPES	8
 12
 12
 12
 12
 12
 12
 12
 12

POINT_DATA	27
VECTORS	u 	float 
0.0	0.0	0.0
0.0011172751	0.0	0.0
0.0022345503	0.0	0.0
0.0	0.0008938201	0.0
0.0011172751	0.0008938201	0.0
0.0022345503	0.0008938201	0.0
0.0	0.0017876402	0.0
0.0011172751	0.0017876402	0.0
0.0022345503	0.0017876402	0.0
-0.0	0.0	-0.0038518529
0.0011172751	0.0	-0.0038518529
0.0022345503	-0.0	-0.0038518529
0.0	0.0008938201	-0.0038518529
0.0011172751	0.0008938201	-0.0038518529
0.0022345503	0.0008938201	-0.0038518529
0.0	0.0017876402	-0.0038518529
0.0011172751	0.0017876402	-0.0038518529
0.0022345503	0.0017876402	-0.0038518529
0.0	0.0	-0.0077037057
0.0011172751	0.0	-0.0077037057
0.0022345503	0.0	-0.0077037057
0.0	0.0008938201	-0.0077037057
0.0011172751	0.0008938201	-0.0077037057
0.0022345503	0.0008938201	-0.0077037057
0.0	0.0017876402	-0.0077037057
0.0011172751	0.0017876402	-0.0077037057
0.0022345503	0.0017876402	-0.0077037057

VECTORS	v 	float 
0.0	0.0	0.0
0.0022361647	0.0	0.0
0.0044723295	0.0	0.0
0.0	0.0017889318	0.0
0.0022361647	0.0017889318	0.0
0.0044723295	0.0017889318	0.0
0.0	0.0035778636	0.0
0.0022361647	0.0035778636	0.0
0.0044723295	0.0035778636	0.0
0.0	-0.0	-0.0077027027
0.0022361647	-0.0	-0.0077027027
0.0044723295	0.0	-0.0077027027
0.0	0.0017889318	-0.0077027027
0.0022361647	0.0017889318	-0.0077027027
0.0044723295	0.0017889318	-0.0077027027
0.0	0.0035778636	-0.0077027027
0.0022361647	0.0035778636	-0.0077027027
0.0044723295	0.0035778636	-0.0077027027
0.0	-0.0	-0.0154054054
0.0022361647	-0.0	-0.0154054054
0.0044723295	0.0	-0.0154054054
0.0	0.0017889318	-0.0154054054
0.0022361647	0.0017889318	-0.0154054054
0.0044723295	0.0017889318	-0.0154054054
0.0	0.0035778636	-0.0154054054
0.0022361647	0.0035778636	-0.0154054054
0.0044723295	0.0035778636	-0.0154054054

VECTORS	a 	float 
0.0	0.0	0.0
0.1654761905	0.0	0.0
0.330952381	0.0	0.0
0.0	0.1323809524	0.0
0.1654761905	0.1323809524	0.0
0.330952381	0.1323809524	0.0
0.0	0.2647619048	0.0
0.1654761905	0.2647619048	0.0
0.330952381	0.2647619048	0.0
0.0	-0.0	-0.57
0.1654761905	-0.0	-0.57
0.330952381	0.0	-0.57
0.0	0.1323809524	-0.57
0.1654761905	0.1323809524	-0.57
0.330952381	0.1323809524	-0.57
0.0	0.2647619048	-0.57
0.1654761905	0.2647619048	-0.57
0.330952381	0.2647619048	-0.57
0.0	-0.0	-1.14
0.1654761905	-0.0	-1.14
0.330952381	0.0	-1.14
0.0	0.1323809524	-1.14
0.1654761905	0.1323809524	-1.14
0.330952381	0.1323809524	-1.14
0.0	0.2647619048	-1.14
0.1654761905	0.2647619048	-1.14
0.330952381	0.2647619048	-1.14

SCALARS	theta	float 1
LOOKUP_TABLE	default
300.0448896138
300.0448896138
300.0448896138
300.0448896138
300.0448896138
300.0448896138
300.0448896138
300.0448896138
300.0448896138
300.0448896138
300.0448896138
300.0448896138
300.0448896138
300.0448896138
300.0448896138
300.0448896138
300.0448896138
300.0448896138
300.0448896138
300.0448896138
300.0448896138
300.0448896138
300.0448896138
300.0448896138
300.0448896138
300.0448896138
300.0448896138

SCALARS	sig_11	float	1
LOOKUP_TABLE	default
4.3e-09
4.3e-09
4.3e-09
4.3e-09
4.3e-09
4.3e-09
4.3e-09
4.3e-09
4.3e-09
4.3e-09
4.3e-09
4.3e-09
4.3e-09
4.3e-09
4.3e-09
4.3e-09
4.3e-09
4.3e-09
4.3e-09
4.3e-09
4.3e-09
4.3e-09
4.3e-09
4.3e-09
4.3e-09
4.3e-09
4.3e-09

SCALARS	sig_22	float	1
LOOKUP_TABLE	default
4.3e-09
4.3e-09
4.3e-09
4.3e-09
4.3e-09
4.3e-09
4.3e-09
4.3e-09
4.3e-09
4.3e-09
4.3e-09
4.3e-09
4.3e-09
4.3e-09
4.3e-09
4.3e-09
4.3e-09
4.3e-09
4.3e-09
4.3e-09
4.3e-09
4.3e-09
4.3e-09
4.3e-09
4.3e-09
4.3e-09
4.3e-09

SCALARS	sig_33	float	1
LOOKUP_TABLE	default
-12.5001292182
-12.5001292182
-12.5001292182
-12.5001292182
-12.5001292182
-12.5001292182
-12.5001292182
-12.5001292182
-12.5001292182
-12.5001292182
-12.5001292182
-12.5001292182
-12.5001292182
-12.5001292182
-12.5001292182
-12.5001292182
-12.5001292182
-12.5001292182
-12.5001292182
-12.5001292182
-12.5001292182
-12.5001292182
-12.5001292182
-12.5001292182
-12.5001292182
-12.5001292182
-12.5001292182

SCALARS vonMises	float	1
LOOKUP_TABLE	default
8.8389261389
8.8389261389
8.8389261389
8.8389261389
8.8389261389
8.8389261389
8.8389261389
8.8389261389
8.8389261389
8.838926139
8.838926139
8.8389261389
8.838926139
8.8389261389
8.8389261389
8.838926139
8.838926139
8.8389261389
8.838926139
8.838926139
8.8389261389
8.838926139
8.838926139
8.8389261389
8.838926139
8.838926139
8.8389261389
