# vtk DataFile Version 2.0
Results
ASCII
DATASET UNSTRUCTURED_GRID
POINTS         27           float
0.0	0.0	0.0	
50.0	0.0	0.0	
100.0	0.0	0.0	
0.0	40.0	0.0	
50.0	40.0	0.0	
100.0	40.0	0.0	
0.0	80.0	0.0	
50.0	80.0	0.0	
100.0	80.0	0.0	
0.0	0.0	70.0	
50.0	0.0	70.0	
100.0	0.0	70.0	
0.0	40.0	70.0	
50.0	40.0	70.0	
100.0	40.0	70.0	
0.0	80.0	70.0	
50.0	80.0	70.0	
100.0	80.0	70.0	
0.0	0.0	140.0	
50.0	0.0	140.0	
100.0	0.0	140.0	
0.0	40.0	140.0	
50.0	40.0	140.0	
100.0	40.0	140.0	
0.0	80.0	140.0	
50.0	80.0	140.0	
100.0	80.0	140.0	

CELLS	8	72
 8	0	1	4	3	9	10	13	12	
 8	1	2	5	4	10	11	14	13	
 8	4	5	8	7	13	14	17	16	
 8	3	4	7	6	12	13	16	15	
 8	9	10	13	12	18	19	22	21	
 8	10	11	14	13	19	20	23	22	
 8	13	14	17	16	22	23	26	25	
 8	12	13	16	15	21	22	25	24	

CELL_TYPES	8
 12
 12
 12
 12
 12
 12
 12
 12

POINT_DATA	27
VECTORS	u 	float 
0.0	0.0	0.0
-3.8624e-06	0.0	0.0
-7.7249e-06	0.0	0.0
0.0	-3.09e-06	0.0
-3.8624e-06	-3.09e-06	0.0
-7.7249e-06	-3.09e-06	0.0
0.0	-6.1799e-06	0.0
-3.8624e-06	-6.1799e-06	0.0
-7.7249e-06	-6.1799e-06	0.0
-0.0	0.0	-5.4074e-06
-3.8624e-06	0.0	-5.4074e-06
-7.7249e-06	0.0	-5.4074e-06
-0.0	-3.09e-06	-5.4074e-06
-3.8624e-06	-3.09e-06	-5.4074e-06
-7.7249e-06	-3.09e-06	-5.4074e-06
-0.0	-6.1799e-06	-5.4074e-06
-3.8624e-06	-6.1799e-06	-5.4074e-06
-7.7249e-06	-6.1799e-06	-5.4074e-06
0.0	-0.0	-1.08148e-05
-3.8624e-06	-0.0	-1.08148e-05
-7.7249e-06	0.0	-1.08148e-05
-0.0	-3.09e-06	-1.08148e-05
-3.8624e-06	-3.09e-06	-1.08148e-05
-7.7249e-06	-3.09e-06	-1.08148e-05
0.0	-6.1799e-06	-1.08148e-05
-3.8624e-06	-6.1799e-06	-1.08148e-05
-7.7249e-06	-6.1799e-06	-1.08148e-05

VECTORS	v 	float 
0.0	0.0	0.0
-3.593e-07	0.0	0.0
-7.185e-07	0.0	0.0
0.0	-2.874e-07	0.0
-3.593e-07	-2.874e-07	0.0
-7.185e-07	-2.874e-07	0.0
0.0	-5.748e-07	0.0
-3.593e-07	-5.748e-07	0.0
-7.185e-07	-5.748e-07	0.0
-0.0	0.0	1.7684e-06
-3.593e-07	0.0	1.7684e-06
-7.185e-07	0.0	1.7684e-06
-0.0	-2.874e-07	1.7684e-06
-3.593e-07	-2.874e-07	1.7684e-06
-7.185e-07	-2.874e-07	1.7684e-06
-0.0	-5.748e-07	1.7684e-06
-3.593e-07	-5.748e-07	1.7684e-06
-7.185e-07	-5.748e-07	1.7684e-06
-0.0	0.0	3.5369e-06
-3.593e-07	0.0	3.5369e-06
-7.185e-07	0.0	3.5369e-06
-0.0	-2.874e-07	3.5369e-06
-3.593e-07	-2.874e-07	3.5369e-06
-7.185e-07	-2.874e-07	3.5369e-06
-0.0	-5.748e-07	3.5369e-06
-3.593e-07	-5.748e-07	3.5369e-06
-7.185e-07	-5.748e-07	3.5369e-06

VECTORS	a 	float 
0.0	0.0	0.0
-0.8945973866	0.0	0.0
-1.7891947732	0.0	0.0
0.0	-0.7156779093	0.0
-0.8945973866	-0.7156779093	0.0
-1.7891947732	-0.7156779093	0.0
0.0	-1.4313558186	0.0
-0.8945973866	-1.4313558186	0.0
-1.7891947732	-1.4313558186	0.0
-0.0	0.0	3.0817283321
-0.8945973866	0.0	3.0817283321
-1.7891947732	0.0	3.0817283321
-0.0	-0.7156779093	3.0817283321
-0.8945973866	-0.7156779093	3.0817283321
-1.7891947732	-0.7156779093	3.0817283321
-0.0	-1.4313558186	3.0817283321
-0.8945973866	-1.4313558186	3.0817283321
-1.7891947732	-1.4313558186	3.0817283321
-0.0	0.0	6.1634566642
-0.8945973866	0.0	6.1634566642
-1.7891947732	0.0	6.1634566642
-0.0	-0.7156779093	6.1634566642
-0.8945973866	-0.7156779093	6.1634566642
-1.7891947732	-0.7156779093	6.1634566642
-0.0	-1.4313558186	6.1634566642
-0.8945973866	-1.4313558186	6.1634566642
-1.7891947732	-1.4313558186	6.1634566642

SCALARS	theta	float 1
LOOKUP_TABLE	default
299.9992275112
299.9992275112
299.9992275112
299.9992275112
299.9992275112
299.9992275112
299.9992275112
299.9992275112
299.9992275112
299.9992275112
299.9992275112
299.9992275112
299.9992275112
299.9992275112
299.9992275112
299.9992275112
299.9992275112
299.9992275112
299.9992275112
299.9992275112
299.9992275112
299.9992275112
299.9992275112
299.9992275112
299.9992275112
299.9992275112
299.9992275112

SCALARS	sig_11	float	1
LOOKUP_TABLE	default
0.0
0.0
-0.0
0.0
0.0
0.0
0.0
0.0
-0.0
0.0
0.0
0.0
0.0
0.0
0.0
0.0
0.0
0.0
-0.0
-0.0
0.0
-0.0
0.0
0.0
0.0
0.0
0.0

SCALARS	sig_22	float	1
LOOKUP_TABLE	default
0.0
0.0
-0.0
0.0
0.0
0.0
0.0
0.0
-0.0
0.0
0.0
0.0
0.0
0.0
0.0
0.0
0.0
0.0
-0.0
-0.0
0.0
-0.0
0.0
0.0
0.0
0.0
0.0

SCALARS	sig_33	float	1
LOOKUP_TABLE	default
0.0
0.0
0.0
0.0
0.0
0.0
0.0
0.0
0.0
0.0
0.0
0.0
0.0
0.0
0.0
0.0
0.0
0.0
0.0
0.0
0.0
0.0
0.0
0.0
0.0
0.0
0.0

SCALARS vonMises	float	1
LOOKUP_TABLE	default
0.0
0.0
0.0
0.0
0.0
0.0
0.0
0.0
0.0
0.0
0.0
0.0
0.0
0.0
0.0
0.0
0.0
0.0
0.0
0.0
0.0
0.0
0.0
0.0
0.0
0.0
0.0
