# vtk DataFile Version 2.0
Results
ASCII
DATASET UNSTRUCTURED_GRID
POINTS         27           float
0.0	0.0	0.0	
50.0	0.0	0.0	
100.0	0.0	0.0	
0.0	40.0	0.0	
50.0	40.0	0.0	
100.0	40.0	0.0	
0.0	80.0	0.0	
50.0	80.0	0.0	
100.0	80.0	0.0	
0.0	0.0	70.0	
50.0	0.0	70.0	
100.0	0.0	70.0	
0.0	40.0	70.0	
50.0	40.0	70.0	
100.0	40.0	70.0	
0.0	80.0	70.0	
50.0	80.0	70.0	
100.0	80.0	70.0	
0.0	0.0	140.0	
50.0	0.0	140.0	
100.0	0.0	140.0	
0.0	40.0	140.0	
50.0	40.0	140.0	
100.0	40.0	140.0	
0.0	80.0	140.0	
50.0	80.0	140.0	
100.0	80.0	140.0	

CELLS	8	72
 8	0	1	4	3	9	10	13	12	
 8	1	2	5	4	10	11	14	13	
 8	4	5	8	7	13	14	17	16	
 8	3	4	7	6	12	13	16	15	
 8	9	10	13	12	18	19	22	21	
 8	10	11	14	13	19	20	23	22	
 8	13	14	17	16	22	23	26	25	
 8	12	13	16	15	21	22	25	24	

CELL_TYPES	8
 12
 12
 12
 12
 12
 12
 12
 12

POINT_DATA	27
VECTORS	u 	float 
0.0	0.0	0.0
0.0011157511	0.0	0.0
0.0022315023	0.0	0.0
0.0	0.0008926009	0.0
0.0011157511	0.0008926009	0.0
0.0022315023	0.0008926009	0.0
0.0	0.0017852018	0.0
0.0011157511	0.0017852018	0.0
0.0022315023	0.0017852018	0.0
-0.0	0.0	-0.0038539865
0.0011157511	-0.0	-0.0038539865
0.0022315023	-0.0	-0.0038539865
-0.0	0.0008926009	-0.0038539865
0.0011157511	0.0008926009	-0.0038539865
0.0022315023	0.0008926009	-0.0038539865
0.0	0.0017852018	-0.0038539865
0.0011157511	0.0017852018	-0.0038539865
0.0022315023	0.0017852018	-0.0038539865
-0.0	0.0	-0.0077079729
0.0011157511	-0.0	-0.0077079729
0.0022315023	-0.0	-0.0077079729
-0.0	0.0008926009	-0.0077079729
0.0011157511	0.0008926009	-0.0077079729
0.0022315023	0.0008926009	-0.0077079729
-0.0	0.0017852018	-0.0077079729
0.0011157511	0.0017852018	-0.0077079729
0.0022315023	0.0017852018	-0.0077079729

VECTORS	v 	float 
0.0	0.0	0.0
0.0022361647	0.0	0.0
0.0044723295	0.0	0.0
0.0	0.0017889318	0.0
0.0022361647	0.0017889318	0.0
0.0044723295	0.0017889318	0.0
0.0	0.0035778636	0.0
0.0022361647	0.0035778636	0.0
0.0044723295	0.0035778636	0.0
0.0	-0.0	-0.0077027027
0.0022361647	-0.0	-0.0077027027
0.0044723295	0.0	-0.0077027027
0.0	0.0017889318	-0.0077027027
0.0022361647	0.0017889318	-0.0077027027
0.0044723295	0.0017889318	-0.0077027027
0.0	0.0035778636	-0.0077027027
0.0022361647	0.0035778636	-0.0077027027
0.0044723295	0.0035778636	-0.0077027027
0.0	-0.0	-0.0154054054
0.0022361647	-0.0	-0.0154054054
0.0044723295	0.0	-0.0154054054
0.0	0.0017889318	-0.0154054054
0.0022361647	0.0017889318	-0.0154054054
0.0044723295	0.0017889318	-0.0154054054
0.0	0.0035778636	-0.0154054054
0.0022361647	0.0035778636	-0.0154054054
0.0044723295	0.0035778636	-0.0154054054

VECTORS	a 	float 
0.0	0.0	0.0
0.5232625483	0.0	0.0
1.0465250965	0.0	0.0
0.0	0.4186100386	0.0
0.5232625483	0.4186100386	0.0
1.0465250965	0.4186100386	0.0
0.0	0.8372200772	0.0
0.5232625483	0.8372200772	0.0
1.0465250965	0.8372200772	0.0
0.0	-0.0	-1.8024324324
0.5232625483	-0.0	-1.8024324324
1.0465250965	0.0	-1.8024324324
0.0	0.4186100386	-1.8024324324
0.5232625483	0.4186100386	-1.8024324324
1.0465250965	0.4186100386	-1.8024324324
0.0	0.8372200772	-1.8024324324
0.5232625483	0.8372200772	-1.8024324324
1.0465250965	0.8372200772	-1.8024324324
0.0	-0.0	-3.6048648649
0.5232625483	-0.0	-3.6048648649
1.0465250965	0.0	-3.6048648649
0.0	0.4186100386	-3.6048648649
0.5232625483	0.4186100386	-3.6048648649
1.0465250965	0.4186100386	-3.6048648649
0.0	0.8372200772	-3.6048648649
0.5232625483	0.8372200772	-3.6048648649
1.0465250965	0.8372200772	-3.6048648649

SCALARS	theta	float 1
LOOKUP_TABLE	default
300.0445848149
300.0445848149
300.0445848149
300.0445848149
300.0445848149
300.0445848149
300.0445848149
300.0445848149
300.0445848149
300.0445848149
300.0445848149
300.0445848149
300.0445848149
300.0445848149
300.0445848149
300.0445848149
300.0445848149
300.0445848149
300.0445848149
300.0445848149
300.0445848149
300.0445848149
300.0445848149
300.0445848149
300.0445848149
300.0445848149
300.0445848149

SCALARS	sig_11	float	1
LOOKUP_TABLE	default
4.3e-09
4.3e-09
4.3e-09
4.3e-09
4.3e-09
4.3e-09
4.3e-09
4.3e-09
4.3e-09
4.2e-09
4.2e-09
4.3e-09
4.3e-09
4.3e-09
4.3e-09
4.3e-09
4.3e-09
4.3e-09
4.3e-09
4.3e-09
4.3e-09
4.3e-09
4.3e-09
4.3e-09
4.2e-09
4.2e-09
4.3e-09

SCALARS	sig_22	float	1
LOOKUP_TABLE	default
4.2e-09
4.2e-09
4.3e-09
4.2e-09
4.2e-09
4.3e-09
4.3e-09
4.2e-09
4.2e-09
4.3e-09
4.2e-09
4.2e-09
4.2e-09
4.2e-09
4.2e-09
4.2e-09
4.3e-09
4.3e-09
4.3e-09
4.2e-09
4.3e-09
4.3e-09
4.2e-09
4.3e-09
4.3e-09
4.3e-09
4.3e-09

SCALARS	sig_33	float	1
LOOKUP_TABLE	default
-12.5001303613
-12.5001303613
-12.5001303613
-12.5001303613
-12.5001303613
-12.5001303613
-12.5001303613
-12.5001303613
-12.5001303613
-12.5001303613
-12.5001303613
-12.5001303613
-12.5001303613
-12.5001303613
-12.5001303613
-12.5001303613
-12.5001303613
-12.5001303613
-12.5001303613
-12.5001303613
-12.5001303613
-12.5001303613
-12.5001303613
-12.5001303613
-12.5001303613
-12.5001303613
-12.5001303613

SCALARS vonMises	float	1
LOOKUP_TABLE	default
8.8389269472
8.8389269472
8.8389269472
8.8389269472
8.8389269472
8.8389269472
8.8389269472
8.8389269472
8.8389269472
8.8389269472
8.8389269472
8.8389269472
8.8389269472
8.8389269472
8.8389269472
8.8389269472
8.8389269472
8.8389269472
8.8389269472
8.8389269472
8.8389269472
8.8389269472
8.8389269472
8.8389269472
8.8389269472
8.8389269472
8.8389269472
