# vtk DataFile Version 2.0
Results
ASCII
DATASET UNSTRUCTURED_GRID
POINTS         27           float
0.0	0.0	0.0	
50.0	0.0	0.0	
100.0	0.0	0.0	
0.0	40.0	0.0	
50.0	40.0	0.0	
100.0	40.0	0.0	
0.0	80.0	0.0	
50.0	80.0	0.0	
100.0	80.0	0.0	
0.0	0.0	70.0	
50.0	0.0	70.0	
100.0	0.0	70.0	
0.0	40.0	70.0	
50.0	40.0	70.0	
100.0	40.0	70.0	
0.0	80.0	70.0	
50.0	80.0	70.0	
100.0	80.0	70.0	
0.0	0.0	140.0	
50.0	0.0	140.0	
100.0	0.0	140.0	
0.0	40.0	140.0	
50.0	40.0	140.0	
100.0	40.0	140.0	
0.0	80.0	140.0	
50.0	80.0	140.0	
100.0	80.0	140.0	

CELLS	8	72
 8	0	1	4	3	9	10	13	12	
 8	1	2	5	4	10	11	14	13	
 8	4	5	8	7	13	14	17	16	
 8	3	4	7	6	12	13	16	15	
 8	9	10	13	12	18	19	22	21	
 8	10	11	14	13	19	20	23	22	
 8	13	14	17	16	22	23	26	25	
 8	12	13	16	15	21	22	25	24	

CELL_TYPES	8
 12
 12
 12
 12
 12
 12
 12
 12

POINT_DATA	27
VECTORS	u 	float 
0.0	0.0	0.0
0.0011161176	0.0	0.0
0.0022322353	0.0	0.0
0.0	0.0008928941	0.0
0.0011161176	0.0008928941	0.0
0.0022322353	0.0008928941	0.0
0.0	0.0017857882	0.0
0.0011161176	0.0017857882	0.0
0.0022322353	0.0017857882	0.0
-0.0	0.0	-0.0038534733
0.0011161176	0.0	-0.0038534733
0.0022322353	0.0	-0.0038534733
-0.0	0.0008928941	-0.0038534733
0.0011161176	0.0008928941	-0.0038534733
0.0022322353	0.0008928941	-0.0038534733
-0.0	0.0017857882	-0.0038534733
0.0011161176	0.0017857882	-0.0038534733
0.0022322353	0.0017857882	-0.0038534733
-0.0	0.0	-0.0077069467
0.0011161176	0.0	-0.0077069467
0.0022322353	0.0	-0.0077069467
0.0	0.0008928941	-0.0077069467
0.0011161176	0.0008928941	-0.0077069467
0.0022322353	0.0008928941	-0.0077069467
0.0	0.0017857882	-0.0077069467
0.0011161176	0.0017857882	-0.0077069467
0.0022322353	0.0017857882	-0.0077069467

VECTORS	v 	float 
0.0	0.0	0.0
-0.0022361647	0.0	0.0
-0.0044723295	0.0	0.0
0.0	-0.0017889318	0.0
-0.0022361647	-0.0017889318	0.0
-0.0044723295	-0.0017889318	0.0
0.0	-0.0035778636	0.0
-0.0022361647	-0.0035778636	0.0
-0.0044723295	-0.0035778636	0.0
-0.0	0.0	0.0077027027
-0.0022361647	0.0	0.0077027027
-0.0044723295	-0.0	0.0077027027
-0.0	-0.0017889318	0.0077027027
-0.0022361647	-0.0017889318	0.0077027027
-0.0044723295	-0.0017889318	0.0077027027
-0.0	-0.0035778636	0.0077027027
-0.0022361647	-0.0035778636	0.0077027027
-0.0044723295	-0.0035778636	0.0077027027
-0.0	0.0	0.0154054054
-0.0022361647	0.0	0.0154054054
-0.0044723295	-0.0	0.0154054054
-0.0	-0.0017889318	0.0154054054
-0.0022361647	-0.0017889318	0.0154054054
-0.0044723295	-0.0017889318	0.0154054054
-0.0	-0.0035778636	0.0154054054
-0.0022361647	-0.0035778636	0.0154054054
-0.0044723295	-0.0035778636	0.0154054054

VECTORS	a 	float 
0.0	0.0	0.0
-0.4248712999	0.0	0.0
-0.8497425997	0.0	0.0
0.0	-0.3398970399	0.0
-0.4248712999	-0.3398970399	0.0
-0.8497425997	-0.3398970399	0.0
0.0	-0.6797940798	0.0
-0.4248712999	-0.6797940798	0.0
-0.8497425997	-0.6797940798	0.0
-0.0	0.0	1.4635135135
-0.4248712999	0.0	1.4635135135
-0.8497425997	-0.0	1.4635135135
-0.0	-0.3398970399	1.4635135135
-0.4248712999	-0.3398970399	1.4635135135
-0.8497425997	-0.3398970399	1.4635135135
-0.0	-0.6797940798	1.4635135135
-0.4248712999	-0.6797940798	1.4635135135
-0.8497425997	-0.6797940798	1.4635135135
-0.0	0.0	2.927027027
-0.4248712999	0.0	2.927027027
-0.8497425997	-0.0	2.927027027
-0.0	-0.3398970399	2.927027027
-0.4248712999	-0.3398970399	2.927027027
-0.8497425997	-0.3398970399	2.927027027
-0.0	-0.6797940798	2.927027027
-0.4248712999	-0.6797940798	2.927027027
-0.8497425997	-0.6797940798	2.927027027

SCALARS	theta	float 1
LOOKUP_TABLE	default
300.0446581152
300.0446581152
300.0446581152
300.0446581152
300.0446581152
300.0446581152
300.0446581152
300.0446581152
300.0446581152
300.0446581152
300.0446581152
300.0446581152
300.0446581152
300.0446581152
300.0446581152
300.0446581152
300.0446581152
300.0446581152
300.0446581152
300.0446581152
300.0446581152
300.0446581152
300.0446581152
300.0446581152
300.0446581152
300.0446581152
300.0446581152

SCALARS	sig_11	float	1
LOOKUP_TABLE	default
-7e-10
-7e-10
-7e-10
-7e-10
-7e-10
-7e-10
-7e-10
-7e-10
-7e-10
-7e-10
-7e-10
-7e-10
-7e-10
-7e-10
-7e-10
-7e-10
-7e-10
-7e-10
-7e-10
-7e-10
-7e-10
-7e-10
-7e-10
-7e-10
-7e-10
-7e-10
-7e-10

SCALARS	sig_22	float	1
LOOKUP_TABLE	default
-7e-10
-7e-10
-7e-10
-7e-10
-7e-10
-7e-10
-7e-10
-7e-10
-7e-10
-7e-10
-7e-10
-7e-10
-7e-10
-7e-10
-7e-10
-7e-10
-7e-10
-7e-10
-7e-10
-7e-10
-7e-10
-7e-10
-7e-10
-7e-10
-7e-10
-7e-10
-7e-10

SCALARS	sig_33	float	1
LOOKUP_TABLE	default
-12.5001300651
-12.500130065
-12.5001300651
-12.500130065
-12.500130065
-12.500130065
-12.500130065
-12.500130065
-12.500130065
-12.5001300651
-12.5001300651
-12.5001300651
-12.5001300651
-12.5001300651
-12.5001300651
-12.5001300651
-12.5001300651
-12.5001300651
-12.5001300651
-12.5001300651
-12.5001300651
-12.5001300651
-12.5001300651
-12.5001300651
-12.5001300651
-12.5001300651
-12.5001300651

SCALARS vonMises	float	1
LOOKUP_TABLE	default
8.8389267342
8.8389267342
8.8389267342
8.8389267342
8.8389267342
8.8389267342
8.8389267342
8.8389267342
8.8389267342
8.8389267342
8.8389267342
8.8389267342
8.8389267342
8.8389267342
8.8389267342
8.8389267342
8.8389267342
8.8389267342
8.8389267342
8.8389267342
8.8389267342
8.8389267342
8.8389267342
8.8389267342
8.8389267342
8.8389267342
8.8389267342
