# vtk DataFile Version 2.0
Results
ASCII
DATASET UNSTRUCTURED_GRID
POINTS         27           float
0.0	0.0	0.0	
50.0	0.0	0.0	
100.0	0.0	0.0	
0.0	40.0	0.0	
50.0	40.0	0.0	
100.0	40.0	0.0	
0.0	80.0	0.0	
50.0	80.0	0.0	
100.0	80.0	0.0	
0.0	0.0	70.0	
50.0	0.0	70.0	
100.0	0.0	70.0	
0.0	40.0	70.0	
50.0	40.0	70.0	
100.0	40.0	70.0	
0.0	80.0	70.0	
50.0	80.0	70.0	
100.0	80.0	70.0	
0.0	0.0	140.0	
50.0	0.0	140.0	
100.0	0.0	140.0	
0.0	40.0	140.0	
50.0	40.0	140.0	
100.0	40.0	140.0	
0.0	80.0	140.0	
50.0	80.0	140.0	
100.0	80.0	140.0	

CELLS	8	72
 8	0	1	4	3	9	10	13	12	
 8	1	2	5	4	10	11	14	13	
 8	4	5	8	7	13	14	17	16	
 8	3	4	7	6	12	13	16	15	
 8	9	10	13	12	18	19	22	21	
 8	10	11	14	13	19	20	23	22	
 8	13	14	17	16	22	23	26	25	
 8	12	13	16	15	21	22	25	24	

CELL_TYPES	8
 12
 12
 12
 12
 12
 12
 12
 12

POINT_DATA	27
VECTORS	u 	float 
0.0	0.0	0.0
0.0011155225	0.0	0.0
0.0022310451	0.0	0.0
0.0	0.000892418	0.0
0.0011155225	0.000892418	0.0
0.0022310451	0.000892418	0.0
0.0	0.0017848361	0.0
0.0011155225	0.0017848361	0.0
0.0022310451	0.0017848361	0.0
-0.0	0.0	-0.0038543065
0.0011155225	0.0	-0.0038543065
0.0022310451	0.0	-0.0038543065
0.0	0.000892418	-0.0038543065
0.0011155225	0.000892418	-0.0038543065
0.0022310451	0.000892418	-0.0038543065
-0.0	0.0017848361	-0.0038543065
0.0011155225	0.0017848361	-0.0038543065
0.0022310451	0.0017848361	-0.0038543065
-0.0	0.0	-0.007708613
0.0011155225	0.0	-0.007708613
0.0022310451	0.0	-0.007708613
-0.0	0.000892418	-0.007708613
0.0011155225	0.000892418	-0.007708613
0.0022310451	0.000892418	-0.007708613
-0.0	0.0017848361	-0.007708613
0.0011155225	0.0017848361	-0.007708613
0.0022310451	0.0017848361	-0.007708613

VECTORS	v 	float 
0.0	0.0	0.0
0.0022361647	0.0	0.0
0.0044723295	0.0	0.0
0.0	0.0017889318	0.0
0.0022361647	0.0017889318	0.0
0.0044723295	0.0017889318	0.0
0.0	0.0035778636	0.0
0.0022361647	0.0035778636	0.0
0.0044723295	0.0035778636	0.0
0.0	-0.0	-0.0077027027
0.0022361647	-0.0	-0.0077027027
0.0044723295	0.0	-0.0077027027
0.0	0.0017889318	-0.0077027027
0.0022361647	0.0017889318	-0.0077027027
0.0044723295	0.0017889318	-0.0077027027
0.0	0.0035778636	-0.0077027027
0.0022361647	0.0035778636	-0.0077027027
0.0044723295	0.0035778636	-0.0077027027
0.0	-0.0	-0.0154054054
0.0022361647	-0.0	-0.0154054054
0.0044723295	0.0	-0.0154054054
0.0	0.0017889318	-0.0154054054
0.0022361647	0.0017889318	-0.0154054054
0.0044723295	0.0017889318	-0.0154054054
0.0	0.0035778636	-0.0154054054
0.0022361647	0.0035778636	-0.0154054054
0.0044723295	0.0035778636	-0.0154054054

VECTORS	a 	float 
0.0	0.0	0.0
0.5769305019	0.0	0.0
1.1538610039	0.0	0.0
0.0	0.4615444015	0.0
0.5769305019	0.4615444015	0.0
1.1538610039	0.4615444015	0.0
0.0	0.9230888031	0.0
0.5769305019	0.9230888031	0.0
1.1538610039	0.9230888031	0.0
0.0	-0.0	-1.9872972973
0.5769305019	-0.0	-1.9872972973
1.1538610039	0.0	-1.9872972973
0.0	0.4615444015	-1.9872972973
0.5769305019	0.4615444015	-1.9872972973
1.1538610039	0.4615444015	-1.9872972973
0.0	0.9230888031	-1.9872972973
0.5769305019	0.9230888031	-1.9872972973
1.1538610039	0.9230888031	-1.9872972973
0.0	-0.0	-3.9745945946
0.5769305019	-0.0	-3.9745945946
1.1538610039	0.0	-3.9745945946
0.0	0.4615444015	-3.9745945946
0.5769305019	0.4615444015	-3.9745945946
1.1538610039	0.4615444015	-3.9745945946
0.0	0.9230888031	-3.9745945946
0.5769305019	0.9230888031	-3.9745945946
1.1538610039	0.9230888031	-3.9745945946

SCALARS	theta	float 1
LOOKUP_TABLE	default
300.0445390951
300.0445390951
300.0445390951
300.0445390951
300.0445390951
300.0445390951
300.0445390951
300.0445390951
300.0445390951
300.0445390951
300.0445390951
300.0445390951
300.0445390951
300.0445390951
300.0445390951
300.0445390951
300.0445390951
300.0445390951
300.0445390951
300.0445390951
300.0445390951
300.0445390951
300.0445390951
300.0445390951
300.0445390951
300.0445390951
300.0445390951

SCALARS	sig_11	float	1
LOOKUP_TABLE	default
4.2e-09
4.2e-09
4.2e-09
4.2e-09
4.2e-09
4.2e-09
4.2e-09
4.2e-09
4.2e-09
4.2e-09
4.2e-09
4.2e-09
4.2e-09
4.2e-09
4.2e-09
4.2e-09
4.2e-09
4.2e-09
4.2e-09
4.2e-09
4.2e-09
4.2e-09
4.2e-09
4.2e-09
4.2e-09
4.2e-09
4.2e-09

SCALARS	sig_22	float	1
LOOKUP_TABLE	default
4.2e-09
4.2e-09
4.2e-09
4.2e-09
4.2e-09
4.2e-09
4.2e-09
4.2e-09
4.2e-09
4.2e-09
4.2e-09
4.2e-09
4.2e-09
4.2e-09
4.2e-09
4.2e-09
4.2e-09
4.2e-09
4.2e-09
4.2e-09
4.2e-09
4.2e-09
4.2e-09
4.2e-09
4.2e-09
4.2e-09
4.2e-09

SCALARS	sig_33	float	1
LOOKUP_TABLE	default
-12.5001305328
-12.5001305328
-12.5001305328
-12.5001305328
-12.5001305328
-12.5001305328
-12.5001305328
-12.5001305328
-12.5001305328
-12.5001305328
-12.5001305328
-12.5001305328
-12.5001305328
-12.5001305328
-12.5001305328
-12.5001305328
-12.5001305328
-12.5001305328
-12.5001305328
-12.5001305328
-12.5001305328
-12.5001305328
-12.5001305328
-12.5001305328
-12.5001305328
-12.5001305328
-12.5001305328

SCALARS vonMises	float	1
LOOKUP_TABLE	default
8.8389270684
8.8389270684
8.8389270684
8.8389270684
8.8389270684
8.8389270684
8.8389270684
8.8389270684
8.8389270684
8.8389270684
8.8389270684
8.8389270684
8.8389270684
8.8389270684
8.8389270684
8.8389270684
8.8389270684
8.8389270684
8.8389270684
8.8389270684
8.8389270684
8.8389270684
8.8389270684
8.8389270684
8.8389270684
8.8389270684
8.8389270684
