# vtk DataFile Version 2.0
Results
ASCII
DATASET UNSTRUCTURED_GRID
POINTS         27           float
0.0	0.0	0.0	
50.0	0.0	0.0	
100.0	0.0	0.0	
0.0	40.0	0.0	
50.0	40.0	0.0	
100.0	40.0	0.0	
0.0	80.0	0.0	
50.0	80.0	0.0	
100.0	80.0	0.0	
0.0	0.0	70.0	
50.0	0.0	70.0	
100.0	0.0	70.0	
0.0	40.0	70.0	
50.0	40.0	70.0	
100.0	40.0	70.0	
0.0	80.0	70.0	
50.0	80.0	70.0	
100.0	80.0	70.0	
0.0	0.0	140.0	
50.0	0.0	140.0	
100.0	0.0	140.0	
0.0	40.0	140.0	
50.0	40.0	140.0	
100.0	40.0	140.0	
0.0	80.0	140.0	
50.0	80.0	140.0	
100.0	80.0	140.0	

CELLS	8	72
 8	0	1	4	3	9	10	13	12	
 8	1	2	5	4	10	11	14	13	
 8	4	5	8	7	13	14	17	16	
 8	3	4	7	6	12	13	16	15	
 8	9	10	13	12	18	19	22	21	
 8	10	11	14	13	19	20	23	22	
 8	13	14	17	16	22	23	26	25	
 8	12	13	16	15	21	22	25	24	

CELL_TYPES	8
 12
 12
 12
 12
 12
 12
 12
 12

POINT_DATA	27
SCALARS	u1	float 1
LOOKUP_TABLE	default
0.0
-0.001
-0.002
0.0
-0.001
-0.002
0.0
-0.001
-0.002
0.0
-0.001
-0.002
0.0
-0.001
-0.002
0.0
-0.001
-0.002
0.0
-0.001
-0.002
0.0
-0.001
-0.002
0.0
-0.001
-0.002

SCALARS	u2	float 1
LOOKUP_TABLE	default
0.0
0.0
0.0
-0.001
-0.001
-0.001
-0.001
-0.001
-0.001
0.0
-0.0
0.0
-0.001
-0.001
-0.001
-0.001
-0.001
-0.001
0.0
0.0
-0.0
-0.001
-0.001
-0.001
-0.001
-0.001
-0.001

SCALARS	u3	float 1
LOOKUP_TABLE	default
0.0
0.0
0.0
0.0
0.0
0.0
0.0
0.0
0.0
-0.001
-0.001
-0.001
-0.001
-0.001
-0.001
-0.001
-0.001
-0.001
-0.002
-0.002
-0.002
-0.002
-0.002
-0.002
-0.002
-0.002
-0.002

SCALARS	u4	float 1
LOOKUP_TABLE	default
299.846
299.846
299.846
299.846
299.846
299.846
299.846
299.846
299.846
299.846
299.846
299.846
299.846
299.846
299.846
299.846
299.846
299.846
299.846
299.846
299.846
299.846
299.846
299.846
299.846
299.846
299.846

VECTORS	u 	float 
0.0	0.0	0.0
-0.0007683592	0.0	0.0
-0.0015367184	0.0	0.0
0.0	-0.0006146874	0.0
-0.0007683592	-0.0006146874	0.0
-0.0015367184	-0.0006146874	0.0
0.0	-0.0012293747	0.0
-0.0007683592	-0.0012293747	0.0
-0.0015367184	-0.0012293747	0.0
0.0	0.0	-0.0010757029
-0.0007683592	-0.0	-0.0010757029
-0.0015367184	0.0	-0.0010757029
0.0	-0.0006146874	-0.0010757029
-0.0007683592	-0.0006146874	-0.0010757029
-0.0015367184	-0.0006146874	-0.0010757029
0.0	-0.0012293747	-0.0010757029
-0.0007683592	-0.0012293747	-0.0010757029
-0.0015367184	-0.0012293747	-0.0010757029
0.0	0.0	-0.0021514058
-0.0007683592	0.0	-0.0021514058
-0.0015367184	-0.0	-0.0021514058
0.0	-0.0006146874	-0.0021514058
-0.0007683592	-0.0006146874	-0.0021514058
-0.0015367184	-0.0006146874	-0.0021514058
0.0	-0.0012293747	-0.0021514058
-0.0007683592	-0.0012293747	-0.0021514058
-0.0015367184	-0.0012293747	-0.0021514058

VECTORS	v 	float 
0.0	0.0	0.0
-2.56203e-05	0.0	0.0
-5.12405e-05	0.0	0.0
0.0	-2.04962e-05	0.0
-2.56203e-05	-2.04962e-05	0.0
-5.12405e-05	-2.04962e-05	0.0
0.0	-4.09924e-05	0.0
-2.56203e-05	-4.09924e-05	0.0
-5.12405e-05	-4.09924e-05	0.0
0.0	-0.0	0.0001336294
-2.56203e-05	0.0	0.0001336294
-5.12405e-05	-0.0	0.0001336294
-0.0	-2.04962e-05	0.0001336294
-2.56203e-05	-2.04962e-05	0.0001336294
-5.12405e-05	-2.04962e-05	0.0001336294
-0.0	-4.09924e-05	0.0001336294
-2.56203e-05	-4.09924e-05	0.0001336294
-5.12405e-05	-4.09924e-05	0.0001336294
0.0	-0.0	0.0002672588
-2.56203e-05	-0.0	0.0002672588
-5.12405e-05	0.0	0.0002672588
0.0	-2.04962e-05	0.0002672588
-2.56203e-05	-2.04962e-05	0.0002672588
-5.12405e-05	-2.04962e-05	0.0002672588
0.0	-4.09924e-05	0.0002672588
-2.56203e-05	-4.09924e-05	0.0002672588
-5.12405e-05	-4.09924e-05	0.0002672588

VECTORS	a 	float 
0.0	0.0	0.0
8.9221332308	0.0	0.0
17.8442664616	0.0	0.0
0.0	7.1377065846	0.0
8.9221332308	7.1377065846	0.0
17.8442664616	7.1377065847	0.0
0.0	14.2754131693	0.0
8.9221332308	14.2754131693	0.0
17.8442664616	14.2754131693	0.0
0.0	-0.0	-30.7204811807
8.9221332308	0.0	-30.7204811807
17.8442664616	-0.0	-30.7204811807
-0.0	7.1377065846	-30.7204811807
8.9221332308	7.1377065846	-30.7204811807
17.8442664616	7.1377065847	-30.7204811808
-0.0	14.2754131693	-30.7204811807
8.9221332308	14.2754131693	-30.7204811807
17.8442664616	14.2754131693	-30.7204811807
1e-10	-1e-10	-61.4409623614
8.9221332309	-0.0	-61.4409623615
17.8442664617	0.0	-61.4409623615
0.0	7.1377065846	-61.4409623614
8.9221332309	7.1377065846	-61.4409623615
17.8442664617	7.1377065846	-61.4409623615
0.0	14.2754131693	-61.4409623614
8.9221332308	14.2754131692	-61.4409623614
17.8442664617	14.2754131692	-61.4409623615

SCALARS	theta	float 1
LOOKUP_TABLE	default
299.8463253447
299.8463253447
299.8463253447
299.8463253447
299.8463253447
299.8463253447
299.8463253447
299.8463253447
299.8463253447
299.8463253447
299.8463253447
299.8463253447
299.8463253447
299.8463253447
299.8463253447
299.8463253447
299.8463253447
299.8463253447
299.8463253447
299.8463253447
299.8463253447
299.8463253447
299.8463253447
299.8463253447
299.8463253447
299.8463253447
299.8463253447

SCALARS	sig_11	float	1
LOOKUP_TABLE	default
1e-09
1e-09
1e-09
1e-09
1e-09
1e-09
1e-09
1e-09
1e-09
1e-09
1e-09
1e-09
1e-09
1e-09
1e-09
1e-09
1e-09
1e-09
1e-09
1e-09
1e-09
1e-09
1e-09
1e-09
1e-09
1e-09
1e-09

SCALARS	sig_22	float	1
LOOKUP_TABLE	default
1e-09
1e-09
1e-09
1e-09
1e-09
1e-09
1e-09
1e-09
1e-09
1e-09
1e-09
1e-09
1e-09
1e-09
1e-09
1e-09
1e-09
1e-09
1e-09
1e-09
1e-09
1e-09
1e-09
1e-09
1e-09
1e-09
1e-09

SCALARS	sig_33	float	1
LOOKUP_TABLE	default
1e-09
1e-09
1e-09
1e-09
1e-09
1e-09
1e-09
1e-09
1e-09
1e-09
1e-09
1e-09
1e-09
1e-09
1e-09
1e-09
1e-09
1e-09
1e-09
1e-09
1e-09
1e-09
1e-09
1e-09
1e-09
1e-09
1e-09

SCALARS vonMises	float	1
LOOKUP_TABLE	default
0.0
0.0
0.0
0.0
0.0
0.0
0.0
0.0
0.0
0.0
0.0
0.0
0.0
0.0
0.0
0.0
0.0
0.0
0.0
0.0
0.0
0.0
0.0
0.0
0.0
0.0
0.0
