# vtk DataFile Version 2.0
Results
ASCII
DATASET UNSTRUCTURED_GRID
POINTS         27           float
0.0	0.0	0.0	
50.0	0.0	0.0	
100.0	0.0	0.0	
0.0	40.0	0.0	
50.0	40.0	0.0	
100.0	40.0	0.0	
0.0	80.0	0.0	
50.0	80.0	0.0	
100.0	80.0	0.0	
0.0	0.0	70.0	
50.0	0.0	70.0	
100.0	0.0	70.0	
0.0	40.0	70.0	
50.0	40.0	70.0	
100.0	40.0	70.0	
0.0	80.0	70.0	
50.0	80.0	70.0	
100.0	80.0	70.0	
0.0	0.0	140.0	
50.0	0.0	140.0	
100.0	0.0	140.0	
0.0	40.0	140.0	
50.0	40.0	140.0	
100.0	40.0	140.0	
0.0	80.0	140.0	
50.0	80.0	140.0	
100.0	80.0	140.0	

CELLS	8	72
 8	0	1	4	3	9	10	13	12	
 8	1	2	5	4	10	11	14	13	
 8	4	5	8	7	13	14	17	16	
 8	3	4	7	6	12	13	16	15	
 8	9	10	13	12	18	19	22	21	
 8	10	11	14	13	19	20	23	22	
 8	13	14	17	16	22	23	26	25	
 8	12	13	16	15	21	22	25	24	

CELL_TYPES	8
 12
 12
 12
 12
 12
 12
 12
 12

POINT_DATA	27
SCALARS	u1	float 1
LOOKUP_TABLE	default
0.0
-0.012
-0.023
0.0
-0.012
-0.023
0.0
-0.012
-0.023
0.0
-0.012
-0.023
0.0
-0.012
-0.023
0.0
-0.012
-0.023
-0.0
-0.012
-0.023
0.0
-0.012
-0.023
0.0
-0.012
-0.023

SCALARS	u2	float 1
LOOKUP_TABLE	default
0.0
0.0
0.0
-0.009
-0.009
-0.009
-0.019
-0.019
-0.019
0.0
-0.0
-0.0
-0.009
-0.009
-0.009
-0.019
-0.019
-0.019
0.0
-0.0
0.0
-0.009
-0.009
-0.009
-0.019
-0.019
-0.019

SCALARS	u3	float 1
LOOKUP_TABLE	default
0.0
0.0
0.0
0.0
0.0
0.0
0.0
0.0
0.0
0.038
0.038
0.038
0.038
0.038
0.038
0.038
0.038
0.038
0.076
0.076
0.076
0.076
0.076
0.076
0.076
0.076
0.076

SCALARS	u4	float 1
LOOKUP_TABLE	default
299.465
299.465
299.465
299.465
299.465
299.465
299.465
299.465
299.465
299.465
299.465
299.465
299.465
299.465
299.465
299.465
299.465
299.465
299.465
299.465
299.465
299.465
299.465
299.465
299.465
299.465
299.465

VECTORS	u 	float 
0.0	0.0	0.0
-0.0116073354	0.0	0.0
-0.0232146708	0.0	0.0
0.0	-0.0092858683	0.0
-0.0116073354	-0.0092858683	0.0
-0.0232146708	-0.0092858683	0.0
0.0	-0.0185717366	0.0
-0.0116073354	-0.0185717366	0.0
-0.0232146708	-0.0185717366	0.0
0.0	0.0	0.0379793502
-0.0116073354	-0.0	0.0379793502
-0.0232146708	-0.0	0.0379793502
0.0	-0.0092858683	0.0379793502
-0.0116073354	-0.0092858683	0.0379793502
-0.0232146708	-0.0092858683	0.0379793502
0.0	-0.0185717366	0.0379793502
-0.0116073354	-0.0185717366	0.0379793502
-0.0232146708	-0.0185717366	0.0379793502
-0.0	0.0	0.0759587004
-0.0116073354	-0.0	0.0759587004
-0.0232146708	0.0	0.0759587004
0.0	-0.0092858683	0.0759587004
-0.0116073354	-0.0092858683	0.0759587004
-0.0232146708	-0.0092858683	0.0759587004
0.0	-0.0185717366	0.0759587004
-0.0116073354	-0.0185717366	0.0759587004
-0.0232146708	-0.0185717366	0.0759587004

VECTORS	v 	float 
0.0	0.0	0.0
-0.0223525275	0.0	0.0
-0.044705055	0.0	0.0
0.0	-0.017882022	0.0
-0.0223525275	-0.017882022	0.0
-0.044705055	-0.017882022	0.0
0.0	-0.035764044	0.0
-0.0223525275	-0.035764044	0.0
-0.044705055	-0.035764044	0.0
-0.0	0.0	0.0769978535
-0.0223525275	-0.0	0.0769978535
-0.044705055	-0.0	0.0769978535
0.0	-0.017882022	0.0769978535
-0.0223525275	-0.017882022	0.0769978535
-0.044705055	-0.017882022	0.0769978535
0.0	-0.035764044	0.0769978535
-0.0223525275	-0.035764044	0.0769978535
-0.044705055	-0.035764044	0.0769978535
-0.0	0.0	0.1539957071
-0.0223525275	0.0	0.1539957071
-0.044705055	-0.0	0.1539957071
0.0	-0.017882022	0.1539957071
-0.0223525275	-0.017882022	0.1539957071
-0.044705055	-0.017882022	0.1539957071
-0.0	-0.035764044	0.1539957071
-0.0223525275	-0.035764044	0.1539957071
-0.044705055	-0.035764044	0.1539957071

VECTORS	a 	float 
0.0	0.0	0.0
-4.8713470894	0.0	0.0
-9.7426941787	0.0	0.0
0.0	-3.8970776715	0.0
-4.8713470894	-3.8970776715	0.0
-9.7426941787	-3.8970776715	0.0
0.0	-7.794155343	0.0
-4.8713470894	-7.794155343	0.0
-9.7426941787	-7.794155343	0.0
-0.0	0.0	16.787974398
-4.8713470894	-0.0	16.787974398
-9.7426941787	0.0	16.787974398
0.0	-3.8970776715	16.787974398
-4.8713470894	-3.8970776715	16.787974398
-9.7426941787	-3.8970776715	16.787974398
0.0	-7.794155343	16.787974398
-4.8713470894	-7.794155343	16.787974398
-9.7426941787	-7.794155343	16.787974398
-0.0	0.0	33.575948796
-4.8713470894	0.0	33.575948796
-9.7426941787	-0.0	33.575948796
-0.0	-3.8970776715	33.575948796
-4.8713470894	-3.8970776715	33.575948796
-9.7426941787	-3.8970776715	33.575948796
-0.0	-7.794155343	33.575948796
-4.8713470894	-7.794155343	33.575948796
-9.7426941787	-7.794155343	33.575948796

SCALARS	theta	float 1
LOOKUP_TABLE	default
299.4648483965
299.4648483965
299.4648483965
299.4648483965
299.4648483965
299.4648483965
299.4648483965
299.4648483965
299.4648483965
299.4648483965
299.4648483965
299.4648483965
299.4648483965
299.4648483965
299.4648483965
299.4648483965
299.4648483965
299.4648483965
299.4648483965
299.4648483965
299.4648483965
299.4648483965
299.4648483965
299.4648483965
299.4648483965
299.4648483965
299.4648483965

SCALARS	sig_11	float	1
LOOKUP_TABLE	default
-2.3e-09
-2.3e-09
-2.3e-09
-2.3e-09
-2.3e-09
-2.3e-09
-2.3e-09
-2.3e-09
-2.3e-09
-2.3e-09
-2.3e-09
-2.3e-09
-2.3e-09
-2.3e-09
-2.3e-09
-2.3e-09
-2.3e-09
-2.3e-09
-2.3e-09
-2.3e-09
-2.3e-09
-2.3e-09
-2.3e-09
-2.3e-09
-2.3e-09
-2.3e-09
-2.3e-09

SCALARS	sig_22	float	1
LOOKUP_TABLE	default
-2.3e-09
-2.3e-09
-2.3e-09
-2.3e-09
-2.3e-09
-2.3e-09
-2.3e-09
-2.3e-09
-2.3e-09
-2.3e-09
-2.3e-09
-2.3e-09
-2.3e-09
-2.3e-09
-2.3e-09
-2.3e-09
-2.3e-09
-2.3e-09
-2.3e-09
-2.3e-09
-2.3e-09
-2.3e-09
-2.3e-09
-2.3e-09
-2.3e-09
-2.3e-09
-2.3e-09

SCALARS	sig_33	float	1
LOOKUP_TABLE	default
124.9902217186
124.9902217186
124.9902217186
124.9902217187
124.9902217186
124.9902217187
124.9902217186
124.9902217187
124.9902217187
124.9902217187
124.9902217187
124.9902217187
124.9902217187
124.9902217187
124.9902217187
124.9902217187
124.9902217187
124.9902217187
124.9902217187
124.9902217186
124.9902217187
124.9902217187
124.9902217187
124.9902217187
124.9902217187
124.9902217187
124.9902217187

SCALARS vonMises	float	1
LOOKUP_TABLE	default
88.3814333609
88.3814333609
88.3814333609
88.3814333609
88.3814333609
88.3814333609
88.3814333609
88.3814333609
88.3814333609
88.3814333609
88.3814333609
88.3814333609
88.3814333609
88.3814333609
88.3814333609
88.3814333609
88.3814333609
88.3814333609
88.3814333609
88.3814333609
88.3814333609
88.3814333609
88.3814333609
88.3814333609
88.3814333609
88.3814333609
88.3814333609
