# vtk DataFile Version 2.0
Results
ASCII
DATASET UNSTRUCTURED_GRID
POINTS         27           float
0.0	0.0	0.0	
50.0	0.0	0.0	
100.0	0.0	0.0	
0.0	40.0	0.0	
50.0	40.0	0.0	
100.0	40.0	0.0	
0.0	80.0	0.0	
50.0	80.0	0.0	
100.0	80.0	0.0	
0.0	0.0	70.0	
50.0	0.0	70.0	
100.0	0.0	70.0	
0.0	40.0	70.0	
50.0	40.0	70.0	
100.0	40.0	70.0	
0.0	80.0	70.0	
50.0	80.0	70.0	
100.0	80.0	70.0	
0.0	0.0	140.0	
50.0	0.0	140.0	
100.0	0.0	140.0	
0.0	40.0	140.0	
50.0	40.0	140.0	
100.0	40.0	140.0	
0.0	80.0	140.0	
50.0	80.0	140.0	
100.0	80.0	140.0	

CELLS	8	72
 8	0	1	4	3	9	10	13	12	
 8	1	2	5	4	10	11	14	13	
 8	4	5	8	7	13	14	17	16	
 8	3	4	7	6	12	13	16	15	
 8	9	10	13	12	18	19	22	21	
 8	10	11	14	13	19	20	23	22	
 8	13	14	17	16	22	23	26	25	
 8	12	13	16	15	21	22	25	24	

CELL_TYPES	8
 12
 12
 12
 12
 12
 12
 12
 12

POINT_DATA	27
SCALARS	u1	float 1
LOOKUP_TABLE	default
0.0
-0.012
-0.024
0.0
-0.012
-0.024
0.0
-0.012
-0.024
0.0
-0.012
-0.024
0.0
-0.012
-0.024
0.0
-0.012
-0.024
0.0
-0.012
-0.024
0.0
-0.012
-0.024
0.0
-0.012
-0.024

SCALARS	u2	float 1
LOOKUP_TABLE	default
0.0
0.0
0.0
-0.009
-0.009
-0.009
-0.019
-0.019
-0.019
0.0
0.0
-0.0
-0.009
-0.009
-0.009
-0.019
-0.019
-0.019
0.0
0.0
0.0
-0.009
-0.009
-0.009
-0.019
-0.019
-0.019

SCALARS	u3	float 1
LOOKUP_TABLE	default
0.0
0.0
0.0
0.0
0.0
0.0
0.0
0.0
0.0
0.038
0.038
0.038
0.038
0.038
0.038
0.038
0.038
0.038
0.075
0.075
0.075
0.075
0.075
0.075
0.075
0.075
0.075

SCALARS	u4	float 1
LOOKUP_TABLE	default
299.424
299.424
299.424
299.424
299.424
299.424
299.424
299.424
299.424
299.424
299.424
299.424
299.424
299.424
299.424
299.424
299.424
299.424
299.424
299.424
299.424
299.424
299.424
299.424
299.424
299.424
299.424

VECTORS	u 	float 
0.0	0.0	0.0
-0.0118125939	0.0	0.0
-0.0236251878	0.0	0.0
0.0	-0.0094500751	0.0
-0.0118125939	-0.0094500751	0.0
-0.0236251878	-0.0094500751	0.0
0.0	-0.0189001502	0.0
-0.0118125939	-0.0189001502	0.0
-0.0236251878	-0.0189001502	0.0
0.0	0.0	0.0376919887
-0.0118125939	0.0	0.0376919887
-0.0236251878	-0.0	0.0376919887
0.0	-0.0094500751	0.0376919887
-0.0118125939	-0.0094500751	0.0376919887
-0.0236251878	-0.0094500751	0.0376919887
0.0	-0.0189001502	0.0376919887
-0.0118125939	-0.0189001502	0.0376919887
-0.0236251878	-0.0189001502	0.0376919887
0.0	0.0	0.0753839774
-0.0118125939	0.0	0.0753839774
-0.0236251878	0.0	0.0753839774
0.0	-0.0094500751	0.0753839774
-0.0118125939	-0.0094500751	0.0753839774
-0.0236251878	-0.0094500751	0.0753839774
0.0	-0.0189001502	0.0753839774
-0.0118125939	-0.0189001502	0.0753839774
-0.0236251878	-0.0189001502	0.0753839774

VECTORS	v 	float 
0.0	0.0	0.0
0.022337069	0.0	0.0
0.044674138	0.0	0.0
0.0	0.0178696552	0.0
0.022337069	0.0178696552	0.0
0.044674138	0.0178696552	0.0
0.0	0.0357393104	0.0
0.022337069	0.0357393104	0.0
0.044674138	0.0357393104	0.0
0.0	0.0	-0.0770195128
0.022337069	0.0	-0.0770195128
0.044674138	0.0	-0.0770195128
-0.0	0.0178696552	-0.0770195128
0.022337069	0.0178696552	-0.0770195128
0.044674138	0.0178696552	-0.0770195128
-0.0	0.0357393104	-0.0770195128
0.022337069	0.0357393104	-0.0770195128
0.044674138	0.0357393104	-0.0770195128
0.0	-0.0	-0.1540390256
0.022337069	0.0	-0.1540390256
0.044674138	0.0	-0.1540390256
0.0	0.0178696552	-0.1540390256
0.022337069	0.0178696552	-0.1540390256
0.044674138	0.0178696552	-0.1540390256
0.0	0.0357393104	-0.1540390256
0.022337069	0.0357393104	-0.1540390256
0.044674138	0.0357393104	-0.1540390256

VECTORS	a 	float 
0.0	0.0	0.0
7.284585278	0.0	0.0
14.5691705561	0.0	0.0
0.0	5.8276682224	0.0
7.284585278	5.8276682224	0.0
14.5691705561	5.8276682224	0.0
0.0	11.6553364449	0.0
7.284585278	11.6553364448	0.0
14.5691705561	11.6553364449	0.0
0.0	-0.0	-25.1049122093
7.284585278	0.0	-25.1049122093
14.5691705561	0.0	-25.1049122093
-0.0	5.8276682224	-25.1049122093
7.284585278	5.8276682224	-25.1049122093
14.5691705561	5.8276682224	-25.1049122093
-0.0	11.6553364449	-25.1049122093
7.284585278	11.6553364449	-25.1049122093
14.5691705561	11.6553364448	-25.1049122093
0.0	-0.0	-50.2098244186
7.284585278	-0.0	-50.2098244186
14.5691705561	0.0	-50.2098244186
0.0	5.8276682224	-50.2098244186
7.284585278	5.8276682224	-50.2098244186
14.5691705561	5.8276682224	-50.2098244186
0.0	11.6553364448	-50.2098244186
7.284585278	11.6553364448	-50.2098244186
14.5691705561	11.6553364448	-50.2098244186

SCALARS	theta	float 1
LOOKUP_TABLE	default
299.4237957777
299.4237957777
299.4237957777
299.4237957777
299.4237957777
299.4237957777
299.4237957777
299.4237957777
299.4237957777
299.4237957777
299.4237957777
299.4237957777
299.4237957777
299.4237957777
299.4237957777
299.4237957777
299.4237957777
299.4237957777
299.4237957777
299.4237957777
299.4237957777
299.4237957777
299.4237957777
299.4237957777
299.4237957777
299.4237957777
299.4237957777

SCALARS	sig_11	float	1
LOOKUP_TABLE	default
-2.3e-09
-2.3e-09
-2.3e-09
-2.3e-09
-2.3e-09
-2.3e-09
-2.3e-09
-2.3e-09
-2.4e-09
-2.3e-09
-2.3e-09
-2.3e-09
-2.3e-09
-2.3e-09
-2.3e-09
-2.3e-09
-2.3e-09
-2.4e-09
-2.3e-09
-2.3e-09
-2.3e-09
-2.3e-09
-2.3e-09
-2.3e-09
-2.3e-09
-2.3e-09
-2.3e-09

SCALARS	sig_22	float	1
LOOKUP_TABLE	default
-2.3e-09
-2.3e-09
-2.3e-09
-2.3e-09
-2.3e-09
-2.3e-09
-2.3e-09
-2.3e-09
-2.4e-09
-2.3e-09
-2.3e-09
-2.3e-09
-2.3e-09
-2.3e-09
-2.3e-09
-2.3e-09
-2.3e-09
-2.4e-09
-2.3e-09
-2.3e-09
-2.3e-09
-2.3e-09
-2.3e-09
-2.3e-09
-2.3e-09
-2.3e-09
-2.3e-09

SCALARS	sig_33	float	1
LOOKUP_TABLE	default
124.9917603818
124.9917603818
124.9917603818
124.9917603818
124.9917603817
124.9917603817
124.9917603818
124.9917603817
124.9917603817
124.9917603818
124.9917603818
124.9917603818
124.9917603818
124.9917603817
124.9917603817
124.9917603818
124.9917603817
124.9917603817
124.9917603818
124.9917603818
124.9917603818
124.9917603818
124.9917603818
124.9917603817
124.9917603818
124.9917603817
124.9917603817

SCALARS vonMises	float	1
LOOKUP_TABLE	default
88.38252136
88.38252136
88.38252136
88.38252136
88.38252136
88.38252136
88.38252136
88.38252136
88.38252136
88.38252136
88.38252136
88.38252136
88.38252136
88.38252136
88.38252136
88.38252136
88.38252136
88.38252136
88.38252136
88.38252136
88.38252136
88.38252136
88.38252136
88.38252136
88.38252136
88.38252136
88.38252136
