# vtk DataFile Version 2.0
Results
ASCII
DATASET UNSTRUCTURED_GRID
POINTS         27           float
0.0	0.0	0.0	
50.0	0.0	0.0	
100.0	0.0	0.0	
0.0	40.0	0.0	
50.0	40.0	0.0	
100.0	40.0	0.0	
0.0	80.0	0.0	
50.0	80.0	0.0	
100.0	80.0	0.0	
0.0	0.0	70.0	
50.0	0.0	70.0	
100.0	0.0	70.0	
0.0	40.0	70.0	
50.0	40.0	70.0	
100.0	40.0	70.0	
0.0	80.0	70.0	
50.0	80.0	70.0	
100.0	80.0	70.0	
0.0	0.0	140.0	
50.0	0.0	140.0	
100.0	0.0	140.0	
0.0	40.0	140.0	
50.0	40.0	140.0	
100.0	40.0	140.0	
0.0	80.0	140.0	
50.0	80.0	140.0	
100.0	80.0	140.0	

CELLS	8	72
 8	0	1	4	3	9	10	13	12	
 8	1	2	5	4	10	11	14	13	
 8	4	5	8	7	13	14	17	16	
 8	3	4	7	6	12	13	16	15	
 8	9	10	13	12	18	19	22	21	
 8	10	11	14	13	19	20	23	22	
 8	13	14	17	16	22	23	26	25	
 8	12	13	16	15	21	22	25	24	

CELL_TYPES	8
 12
 12
 12
 12
 12
 12
 12
 12

POINT_DATA	27
SCALARS	u1	float 1
LOOKUP_TABLE	default
0.0
-0.012
-0.023
0.0
-0.012
-0.023
0.0
-0.012
-0.023
-0.0
-0.012
-0.023
-0.0
-0.012
-0.023
-0.0
-0.012
-0.023
-0.0
-0.012
-0.023
-0.0
-0.012
-0.023
-0.0
-0.012
-0.023

SCALARS	u2	float 1
LOOKUP_TABLE	default
0.0
0.0
0.0
-0.009
-0.009
-0.009
-0.019
-0.019
-0.019
-0.0
0.0
-0.0
-0.009
-0.009
-0.009
-0.019
-0.019
-0.019
-0.0
0.0
-0.0
-0.009
-0.009
-0.009
-0.019
-0.019
-0.019

SCALARS	u3	float 1
LOOKUP_TABLE	default
0.0
0.0
0.0
0.0
0.0
0.0
0.0
0.0
0.0
0.038
0.038
0.038
0.038
0.038
0.038
0.038
0.038
0.038
0.076
0.076
0.076
0.076
0.076
0.076
0.076
0.076
0.076

SCALARS	u4	float 1
LOOKUP_TABLE	default
299.46
299.46
299.46
299.46
299.46
299.46
299.46
299.46
299.46
299.46
299.46
299.46
299.46
299.46
299.46
299.46
299.46
299.46
299.46
299.46
299.46
299.46
299.46
299.46
299.46
299.46
299.46

VECTORS	u 	float 
0.0	0.0	0.0
-0.0116301469	0.0	0.0
-0.0232602939	0.0	0.0
0.0	-0.0093041176	0.0
-0.0116301469	-0.0093041176	0.0
-0.0232602939	-0.0093041176	0.0
0.0	-0.0186082351	0.0
-0.0116301469	-0.0186082351	0.0
-0.0232602939	-0.0186082351	0.0
-0.0	-0.0	0.0379474141
-0.0116301469	0.0	0.0379474141
-0.0232602939	-0.0	0.0379474141
-0.0	-0.0093041176	0.0379474141
-0.0116301469	-0.0093041176	0.0379474141
-0.0232602939	-0.0093041176	0.0379474141
-0.0	-0.0186082351	0.0379474141
-0.0116301469	-0.0186082351	0.0379474141
-0.0232602939	-0.0186082351	0.0379474141
-0.0	-0.0	0.0758948281
-0.0116301469	0.0	0.0758948281
-0.0232602939	-0.0	0.0758948281
-0.0	-0.0093041176	0.0758948281
-0.0116301469	-0.0093041176	0.0758948281
-0.0232602939	-0.0093041176	0.0758948281
-0.0	-0.0186082351	0.0758948281
-0.0116301469	-0.0186082351	0.0758948281
-0.0232602939	-0.0186082351	0.0758948281

VECTORS	v 	float 
0.0	0.0	0.0
0.0223372982	0.0	0.0
0.0446745963	0.0	0.0
0.0	0.0178698385	0.0
0.0223372982	0.0178698385	0.0
0.0446745963	0.0178698385	0.0
0.0	0.035739677	0.0
0.0223372982	0.035739677	0.0
0.0446745963	0.035739677	0.0
0.0	-0.0	-0.0770191912
0.0223372982	0.0	-0.0770191912
0.0446745963	0.0	-0.0770191912
-0.0	0.0178698385	-0.0770191912
0.0223372982	0.0178698385	-0.0770191912
0.0446745963	0.0178698385	-0.0770191912
-0.0	0.035739677	-0.0770191912
0.0223372982	0.035739677	-0.0770191912
0.0446745963	0.035739677	-0.0770191912
0.0	-0.0	-0.1540383824
0.0223372982	0.0	-0.1540383824
0.0446745963	0.0	-0.1540383824
0.0	0.0178698385	-0.1540383824
0.0223372982	0.0178698385	-0.1540383824
0.0446745963	0.0178698385	-0.1540383824
0.0	0.035739677	-0.1540383824
0.0223372982	0.035739677	-0.1540383824
0.0446745963	0.035739677	-0.1540383824

VECTORS	a 	float 
0.0	0.0	0.0
5.139486043	0.0	0.0
10.278972086	0.0	0.0
0.0	4.1115888344	0.0
5.139486043	4.1115888344	0.0
10.278972086	4.1115888344	0.0
0.0	8.2231776688	0.0
5.139486043	8.2231776688	0.0
10.278972086	8.2231776688	0.0
0.0	-0.0	-17.7120766666
5.139486043	0.0	-17.7120766666
10.278972086	-0.0	-17.7120766666
-0.0	4.1115888344	-17.7120766666
5.139486043	4.1115888344	-17.7120766666
10.278972086	4.1115888344	-17.7120766666
-0.0	8.2231776688	-17.7120766666
5.139486043	8.2231776688	-17.7120766666
10.278972086	8.2231776688	-17.7120766666
0.0	-0.0	-35.4241533332
5.139486043	-0.0	-35.4241533332
10.278972086	0.0	-35.4241533332
0.0	4.1115888344	-35.4241533332
5.139486043	4.1115888344	-35.4241533332
10.278972086	4.1115888344	-35.4241533332
0.0	8.2231776688	-35.4241533332
5.139486043	8.2231776688	-35.4241533332
10.278972086	8.2231776688	-35.4241533332

SCALARS	theta	float 1
LOOKUP_TABLE	default
299.4602860016
299.4602860016
299.4602860016
299.4602860016
299.4602860016
299.4602860016
299.4602860016
299.4602860016
299.4602860016
299.4602860016
299.4602860016
299.4602860016
299.4602860016
299.4602860016
299.4602860016
299.4602860016
299.4602860016
299.4602860016
299.4602860016
299.4602860016
299.4602860016
299.4602860016
299.4602860016
299.4602860016
299.4602860016
299.4602860016
299.4602860016

SCALARS	sig_11	float	1
LOOKUP_TABLE	default
-2.4e-09
-2.3e-09
-2.3e-09
-2.4e-09
-2.4e-09
-2.4e-09
-2.4e-09
-2.4e-09
-2.3e-09
-2.4e-09
-2.3e-09
-2.3e-09
-2.4e-09
-2.4e-09
-2.4e-09
-2.4e-09
-2.4e-09
-2.4e-09
-2.4e-09
-2.3e-09
-2.3e-09
-2.4e-09
-2.4e-09
-2.4e-09
-2.4e-09
-2.4e-09
-2.4e-09

SCALARS	sig_22	float	1
LOOKUP_TABLE	default
-2.3e-09
-2.4e-09
-2.4e-09
-2.4e-09
-2.4e-09
-2.3e-09
-2.4e-09
-2.3e-09
-2.3e-09
-2.4e-09
-2.3e-09
-2.3e-09
-2.4e-09
-2.3e-09
-2.4e-09
-2.4e-09
-2.3e-09
-2.4e-09
-2.4e-09
-2.3e-09
-2.3e-09
-2.4e-09
-2.3e-09
-2.3e-09
-2.4e-09
-2.3e-09
-2.3e-09

SCALARS	sig_33	float	1
LOOKUP_TABLE	default
124.99039265
124.99039265
124.99039265
124.99039265
124.99039265
124.99039265
124.99039265
124.99039265
124.99039265
124.99039265
124.99039265
124.99039265
124.99039265
124.99039265
124.99039265
124.99039265
124.99039265
124.99039265
124.99039265
124.99039265
124.99039265
124.99039265
124.99039265
124.99039265
124.99039265
124.99039265
124.99039265

SCALARS vonMises	float	1
LOOKUP_TABLE	default
88.3815542276
88.3815542276
88.3815542276
88.3815542276
88.3815542276
88.3815542276
88.3815542276
88.3815542276
88.3815542276
88.3815542276
88.3815542276
88.3815542276
88.3815542276
88.3815542276
88.3815542276
88.3815542276
88.3815542276
88.3815542276
88.3815542276
88.3815542276
88.3815542276
88.3815542276
88.3815542276
88.3815542276
88.3815542276
88.3815542276
88.3815542276
