# vtk DataFile Version 2.0
Results
ASCII
DATASET UNSTRUCTURED_GRID
POINTS         27           float
0.0	0.0	0.0	
50.0	0.0	0.0	
100.0	0.0	0.0	
0.0	40.0	0.0	
50.0	40.0	0.0	
100.0	40.0	0.0	
0.0	80.0	0.0	
50.0	80.0	0.0	
100.0	80.0	0.0	
0.0	0.0	70.0	
50.0	0.0	70.0	
100.0	0.0	70.0	
0.0	40.0	70.0	
50.0	40.0	70.0	
100.0	40.0	70.0	
0.0	80.0	70.0	
50.0	80.0	70.0	
100.0	80.0	70.0	
0.0	0.0	140.0	
50.0	0.0	140.0	
100.0	0.0	140.0	
0.0	40.0	140.0	
50.0	40.0	140.0	
100.0	40.0	140.0	
0.0	80.0	140.0	
50.0	80.0	140.0	
100.0	80.0	140.0	

CELLS	8	72
 8	0	1	4	3	9	10	13	12	
 8	1	2	5	4	10	11	14	13	
 8	4	5	8	7	13	14	17	16	
 8	3	4	7	6	12	13	16	15	
 8	9	10	13	12	18	19	22	21	
 8	10	11	14	13	19	20	23	22	
 8	13	14	17	16	22	23	26	25	
 8	12	13	16	15	21	22	25	24	

CELL_TYPES	8
 12
 12
 12
 12
 12
 12
 12
 12

POINT_DATA	27
SCALARS	u1	float 1
LOOKUP_TABLE	default
0.0
-0.012
-0.024
0.0
-0.012
-0.024
0.0
-0.012
-0.024
0.0
-0.012
-0.024
0.0
-0.012
-0.024
0.0
-0.012
-0.024
0.0
-0.012
-0.024
0.0
-0.012
-0.024
0.0
-0.012
-0.024

SCALARS	u2	float 1
LOOKUP_TABLE	default
0.0
0.0
0.0
-0.01
-0.01
-0.01
-0.019
-0.019
-0.019
0.0
0.0
0.0
-0.01
-0.01
-0.01
-0.019
-0.019
-0.019
0.0
0.0
0.0
-0.01
-0.01
-0.01
-0.019
-0.019
-0.019

SCALARS	u3	float 1
LOOKUP_TABLE	default
0.0
0.0
0.0
0.0
0.0
0.0
0.0
0.0
0.0
0.038
0.038
0.038
0.038
0.038
0.038
0.038
0.038
0.038
0.075
0.075
0.075
0.075
0.075
0.075
0.075
0.075
0.075

SCALARS	u4	float 1
LOOKUP_TABLE	default
299.401
299.401
299.401
299.401
299.401
299.401
299.401
299.401
299.401
299.401
299.401
299.401
299.401
299.401
299.401
299.401
299.401
299.401
299.401
299.401
299.401
299.401
299.401
299.401
299.401
299.401
299.401

VECTORS	u 	float 
0.0	0.0	0.0
-0.0119266137	0.0	0.0
-0.0238532274	0.0	0.0
0.0	-0.009541291	0.0
-0.0119266137	-0.009541291	0.0
-0.0238532274	-0.009541291	0.0
0.0	-0.0190825819	0.0
-0.0119266137	-0.0190825819	0.0
-0.0238532274	-0.0190825819	0.0
0.0	0.0	0.0375323612
-0.0119266137	0.0	0.0375323612
-0.0238532274	0.0	0.0375323612
0.0	-0.009541291	0.0375323612
-0.0119266137	-0.009541291	0.0375323612
-0.0238532274	-0.009541291	0.0375323612
0.0	-0.0190825819	0.0375323612
-0.0119266137	-0.0190825819	0.0375323612
-0.0238532274	-0.0190825819	0.0375323612
0.0	0.0	0.0750647224
-0.0119266137	0.0	0.0750647224
-0.0238532274	0.0	0.0750647224
0.0	-0.009541291	0.0750647224
-0.0119266137	-0.009541291	0.0750647224
-0.0238532274	-0.009541291	0.0750647224
0.0	-0.0190825819	0.0750647224
-0.0119266137	-0.0190825819	0.0750647224
-0.0238532274	-0.0190825819	0.0750647224

VECTORS	v 	float 
0.0	0.0	0.0
-0.0223521252	0.0	0.0
-0.0447042504	0.0	0.0
0.0	-0.0178817002	0.0
-0.0223521252	-0.0178817002	0.0
-0.0447042504	-0.0178817002	0.0
0.0	-0.0357634003	0.0
-0.0223521252	-0.0357634003	0.0
-0.0447042504	-0.0357634003	0.0
-0.0	0.0	0.0769984181
-0.0223521252	-0.0	0.0769984181
-0.0447042504	-0.0	0.0769984181
0.0	-0.0178817002	0.0769984181
-0.0223521252	-0.0178817002	0.0769984181
-0.0447042504	-0.0178817002	0.0769984181
0.0	-0.0357634003	0.0769984181
-0.0223521252	-0.0357634003	0.0769984181
-0.0447042504	-0.0357634003	0.0769984181
-0.0	0.0	0.1539968362
-0.0223521252	-0.0	0.1539968362
-0.0447042504	-0.0	0.1539968362
-0.0	-0.0178817002	0.1539968362
-0.0223521252	-0.0178817002	0.1539968362
-0.0447042504	-0.0178817002	0.1539968362
-0.0	-0.0357634003	0.1539968362
-0.0223521252	-0.0357634003	0.1539968362
-0.0447042504	-0.0357634003	0.1539968362

VECTORS	a 	float 
0.0	0.0	0.0
-8.6252611103	0.0	0.0
-17.2505222206	0.0	0.0
0.0	-6.9002088882	0.0
-8.6252611103	-6.9002088882	0.0
-17.2505222206	-6.9002088882	0.0
0.0	-13.8004177765	0.0
-8.6252611103	-13.8004177765	0.0
-17.2505222206	-13.8004177765	0.0
-0.0	0.0	29.7254501269
-8.6252611103	-0.0	29.7254501269
-17.2505222206	-0.0	29.7254501269
0.0	-6.9002088882	29.7254501269
-8.6252611103	-6.9002088882	29.7254501269
-17.2505222206	-6.9002088882	29.7254501269
0.0	-13.8004177765	29.7254501269
-8.6252611103	-13.8004177765	29.7254501269
-17.2505222206	-13.8004177765	29.7254501269
-0.0	0.0	59.4509002537
-8.6252611103	-0.0	59.4509002537
-17.2505222206	-0.0	59.4509002537
-0.0	-6.9002088882	59.4509002537
-8.6252611103	-6.9002088882	59.4509002537
-17.2505222206	-6.9002088882	59.4509002537
-0.0	-13.8004177765	59.4509002537
-8.6252611103	-13.8004177765	59.4509002537
-17.2505222206	-13.8004177765	59.4509002537

SCALARS	theta	float 1
LOOKUP_TABLE	default
299.4009911328
299.4009911328
299.4009911328
299.4009911328
299.4009911328
299.4009911328
299.4009911328
299.4009911328
299.4009911328
299.4009911328
299.4009911328
299.4009911328
299.4009911328
299.4009911328
299.4009911328
299.4009911328
299.4009911328
299.4009911328
299.4009911328
299.4009911328
299.4009911328
299.4009911328
299.4009911328
299.4009911328
299.4009911328
299.4009911328
299.4009911328

SCALARS	sig_11	float	1
LOOKUP_TABLE	default
-2.4e-09
-2.3e-09
-2.3e-09
-2.3e-09
-2.3e-09
-2.3e-09
-2.3e-09
-2.3e-09
-2.3e-09
-2.3e-09
-2.3e-09
-2.3e-09
-2.3e-09
-2.3e-09
-2.3e-09
-2.3e-09
-2.3e-09
-2.3e-09
-2.3e-09
-2.3e-09
-2.3e-09
-2.3e-09
-2.3e-09
-2.3e-09
-2.3e-09
-2.3e-09
-2.3e-09

SCALARS	sig_22	float	1
LOOKUP_TABLE	default
-2.4e-09
-2.3e-09
-2.3e-09
-2.3e-09
-2.3e-09
-2.3e-09
-2.3e-09
-2.3e-09
-2.3e-09
-2.3e-09
-2.3e-09
-2.3e-09
-2.3e-09
-2.3e-09
-2.3e-09
-2.3e-09
-2.3e-09
-2.3e-09
-2.3e-09
-2.3e-09
-2.3e-09
-2.3e-09
-2.3e-09
-2.3e-09
-2.3e-09
-2.3e-09
-2.3e-09

SCALARS	sig_33	float	1
LOOKUP_TABLE	default
124.9926152306
124.9926152306
124.9926152306
124.9926152306
124.9926152306
124.9926152307
124.9926152306
124.9926152307
124.9926152307
124.9926152306
124.9926152306
124.9926152307
124.9926152306
124.9926152307
124.9926152307
124.9926152306
124.9926152307
124.9926152307
124.9926152307
124.9926152306
124.9926152307
124.9926152306
124.9926152306
124.9926152306
124.9926152306
124.9926152307
124.9926152307

SCALARS vonMises	float	1
LOOKUP_TABLE	default
88.3831258295
88.3831258295
88.3831258295
88.3831258295
88.3831258295
88.3831258295
88.3831258295
88.3831258295
88.3831258295
88.3831258295
88.3831258295
88.3831258295
88.3831258295
88.3831258295
88.3831258295
88.3831258295
88.3831258295
88.3831258295
88.3831258295
88.3831258295
88.3831258295
88.3831258295
88.3831258295
88.3831258295
88.3831258295
88.3831258295
88.3831258295
