# vtk DataFile Version 2.0
Results
ASCII
DATASET UNSTRUCTURED_GRID
POINTS         27           float
0.0	0.0	0.0	
50.0	0.0	0.0	
100.0	0.0	0.0	
0.0	40.0	0.0	
50.0	40.0	0.0	
100.0	40.0	0.0	
0.0	80.0	0.0	
50.0	80.0	0.0	
100.0	80.0	0.0	
0.0	0.0	70.0	
50.0	0.0	70.0	
100.0	0.0	70.0	
0.0	40.0	70.0	
50.0	40.0	70.0	
100.0	40.0	70.0	
0.0	80.0	70.0	
50.0	80.0	70.0	
100.0	80.0	70.0	
0.0	0.0	140.0	
50.0	0.0	140.0	
100.0	0.0	140.0	
0.0	40.0	140.0	
50.0	40.0	140.0	
100.0	40.0	140.0	
0.0	80.0	140.0	
50.0	80.0	140.0	
100.0	80.0	140.0	

CELLS	8	72
 8	0	1	4	3	9	10	13	12	
 8	1	2	5	4	10	11	14	13	
 8	4	5	8	7	13	14	17	16	
 8	3	4	7	6	12	13	16	15	
 8	9	10	13	12	18	19	22	21	
 8	10	11	14	13	19	20	23	22	
 8	13	14	17	16	22	23	26	25	
 8	12	13	16	15	21	22	25	24	

CELL_TYPES	8
 12
 12
 12
 12
 12
 12
 12
 12

POINT_DATA	27
SCALARS	u1	float 1
LOOKUP_TABLE	default
0.0
-0.011
-0.023
0.0
-0.011
-0.023
0.0
-0.011
-0.023
0.0
-0.011
-0.023
0.0
-0.011
-0.023
-0.0
-0.011
-0.023
-0.0
-0.011
-0.023
0.0
-0.011
-0.023
-0.0
-0.011
-0.023

SCALARS	u2	float 1
LOOKUP_TABLE	default
0.0
0.0
0.0
-0.009
-0.009
-0.009
-0.018
-0.018
-0.018
0.0
0.0
0.0
-0.009
-0.009
-0.009
-0.018
-0.018
-0.018
0.0
0.0
0.0
-0.009
-0.009
-0.009
-0.018
-0.018
-0.018

SCALARS	u3	float 1
LOOKUP_TABLE	default
0.0
0.0
0.0
0.0
0.0
0.0
0.0
0.0
0.0
0.038
0.038
0.038
0.038
0.038
0.038
0.038
0.038
0.038
0.076
0.076
0.076
0.076
0.076
0.076
0.076
0.076
0.076

SCALARS	u4	float 1
LOOKUP_TABLE	default
299.495
299.495
299.495
299.495
299.495
299.495
299.495
299.495
299.495
299.495
299.495
299.495
299.495
299.495
299.495
299.495
299.495
299.495
299.495
299.495
299.495
299.495
299.495
299.495
299.495
299.495
299.495

VECTORS	u 	float 
0.0	0.0	0.0
-0.0114552886	0.0	0.0
-0.0229105773	0.0	0.0
0.0	-0.0091642309	0.0
-0.0114552886	-0.0091642309	0.0
-0.0229105773	-0.0091642309	0.0
0.0	-0.0183284618	0.0
-0.0114552886	-0.0183284618	0.0
-0.0229105773	-0.0183284618	0.0
0.0	0.0	0.0381922153
-0.0114552886	0.0	0.0381922153
-0.0229105773	0.0	0.0381922153
0.0	-0.0091642309	0.0381922153
-0.0114552886	-0.0091642309	0.0381922153
-0.0229105773	-0.0091642309	0.0381922153
-0.0	-0.0183284618	0.0381922153
-0.0114552886	-0.0183284618	0.0381922153
-0.0229105773	-0.0183284618	0.0381922153
-0.0	0.0	0.0763844307
-0.0114552886	0.0	0.0763844307
-0.0229105773	0.0	0.0763844307
0.0	-0.0091642309	0.0763844307
-0.0114552886	-0.0091642309	0.0763844307
-0.0229105773	-0.0091642309	0.0763844307
-0.0	-0.0183284618	0.0763844307
-0.0114552886	-0.0183284618	0.0763844307
-0.0229105773	-0.0183284618	0.0763844307

VECTORS	v 	float 
0.0	0.0	0.0
-0.022352719	0.0	0.0
-0.0447054381	0.0	0.0
0.0	-0.0178821752	0.0
-0.022352719	-0.0178821752	0.0
-0.0447054381	-0.0178821752	0.0
0.0	-0.0357643505	0.0
-0.022352719	-0.0357643505	0.0
-0.0447054381	-0.0357643505	0.0
-0.0	0.0	0.0769975847
-0.022352719	-0.0	0.0769975847
-0.0447054381	-0.0	0.0769975847
-0.0	-0.0178821752	0.0769975847
-0.022352719	-0.0178821752	0.0769975847
-0.0447054381	-0.0178821752	0.0769975847
0.0	-0.0357643505	0.0769975847
-0.022352719	-0.0357643505	0.0769975847
-0.0447054381	-0.0357643505	0.0769975847
-0.0	0.0	0.1539951695
-0.022352719	0.0	0.1539951695
-0.0447054381	-0.0	0.1539951695
-0.0	-0.0178821752	0.1539951695
-0.022352719	-0.0178821752	0.1539951695
-0.0447054381	-0.0178821752	0.1539951695
0.0	-0.0357643505	0.1539951695
-0.022352719	-0.0357643505	0.1539951695
-0.0447054381	-0.0357643505	0.1539951695

VECTORS	a 	float 
0.0	0.0	0.0
-3.0837452677	0.0	0.0
-6.1674905354	0.0	0.0
0.0	-2.4669962142	0.0
-3.0837452677	-2.4669962142	0.0
-6.1674905354	-2.4669962142	0.0
0.0	-4.9339924284	0.0
-3.0837452677	-4.9339924283	0.0
-6.1674905354	-4.9339924284	0.0
-0.0	0.0	10.6273049534
-3.0837452677	-0.0	10.6273049534
-6.1674905354	0.0	10.6273049534
-0.0	-2.4669962142	10.6273049534
-3.0837452677	-2.4669962142	10.6273049534
-6.1674905354	-2.4669962142	10.6273049534
0.0	-4.9339924284	10.6273049534
-3.0837452677	-4.9339924284	10.6273049534
-6.1674905354	-4.9339924283	10.6273049534
-0.0	0.0	21.2546099068
-3.0837452677	0.0	21.2546099068
-6.1674905354	-0.0	21.2546099068
-0.0	-2.4669962142	21.2546099068
-3.0837452677	-2.4669962142	21.2546099068
-6.1674905354	-2.4669962142	21.2546099068
0.0	-4.9339924284	21.2546099068
-3.0837452677	-4.9339924283	21.2546099068
-6.1674905354	-4.9339924283	21.2546099068

SCALARS	theta	float 1
LOOKUP_TABLE	default
299.4952581624
299.4952581624
299.4952581624
299.4952581624
299.4952581624
299.4952581624
299.4952581624
299.4952581624
299.4952581624
299.4952581624
299.4952581624
299.4952581624
299.4952581624
299.4952581624
299.4952581624
299.4952581624
299.4952581624
299.4952581624
299.4952581624
299.4952581624
299.4952581624
299.4952581624
299.4952581624
299.4952581624
299.4952581624
299.4952581624
299.4952581624

SCALARS	sig_11	float	1
LOOKUP_TABLE	default
-2.3e-09
-2.3e-09
-2.3e-09
-2.3e-09
-2.3e-09
-2.3e-09
-2.3e-09
-2.3e-09
-2.3e-09
-2.3e-09
-2.3e-09
-2.3e-09
-2.3e-09
-2.3e-09
-2.3e-09
-2.3e-09
-2.3e-09
-2.3e-09
-2.3e-09
-2.3e-09
-2.3e-09
-2.3e-09
-2.3e-09
-2.3e-09
-2.3e-09
-2.3e-09
-2.3e-09

SCALARS	sig_22	float	1
LOOKUP_TABLE	default
-2.3e-09
-2.3e-09
-2.3e-09
-2.3e-09
-2.3e-09
-2.3e-09
-2.3e-09
-2.3e-09
-2.3e-09
-2.3e-09
-2.3e-09
-2.3e-09
-2.3e-09
-2.3e-09
-2.3e-09
-2.3e-09
-2.3e-09
-2.3e-09
-2.3e-09
-2.3e-09
-2.3e-09
-2.3e-09
-2.3e-09
-2.3e-09
-2.3e-09
-2.3e-09
-2.3e-09

SCALARS	sig_33	float	1
LOOKUP_TABLE	default
124.9890819053
124.9890819054
124.9890819054
124.9890819054
124.9890819054
124.9890819054
124.9890819054
124.9890819054
124.9890819054
124.9890819053
124.9890819053
124.9890819054
124.9890819054
124.9890819054
124.9890819054
124.9890819054
124.9890819054
124.9890819054
124.9890819053
124.9890819053
124.9890819053
124.9890819053
124.9890819054
124.9890819054
124.9890819054
124.9890819054
124.9890819053

SCALARS vonMises	float	1
LOOKUP_TABLE	default
88.3806273912
88.3806273912
88.3806273912
88.3806273912
88.3806273912
88.3806273912
88.3806273912
88.3806273912
88.3806273912
88.3806273912
88.3806273912
88.3806273912
88.3806273912
88.3806273912
88.3806273912
88.3806273912
88.3806273912
88.3806273912
88.3806273912
88.3806273912
88.3806273912
88.3806273912
88.3806273912
88.3806273912
88.3806273912
88.3806273912
88.3806273912
