# vtk DataFile Version 2.0
Results
ASCII
DATASET UNSTRUCTURED_GRID
POINTS         27           float
0.0	0.0	0.0	
50.0	0.0	0.0	
100.0	0.0	0.0	
0.0	40.0	0.0	
50.0	40.0	0.0	
100.0	40.0	0.0	
0.0	80.0	0.0	
50.0	80.0	0.0	
100.0	80.0	0.0	
0.0	0.0	70.0	
50.0	0.0	70.0	
100.0	0.0	70.0	
0.0	40.0	70.0	
50.0	40.0	70.0	
100.0	40.0	70.0	
0.0	80.0	70.0	
50.0	80.0	70.0	
100.0	80.0	70.0	
0.0	0.0	140.0	
50.0	0.0	140.0	
100.0	0.0	140.0	
0.0	40.0	140.0	
50.0	40.0	140.0	
100.0	40.0	140.0	
0.0	80.0	140.0	
50.0	80.0	140.0	
100.0	80.0	140.0	

CELLS	8	72
 8	0	1	4	3	9	10	13	12	
 8	1	2	5	4	10	11	14	13	
 8	4	5	8	7	13	14	17	16	
 8	3	4	7	6	12	13	16	15	
 8	9	10	13	12	18	19	22	21	
 8	10	11	14	13	19	20	23	22	
 8	13	14	17	16	22	23	26	25	
 8	12	13	16	15	21	22	25	24	

CELL_TYPES	8
 12
 12
 12
 12
 12
 12
 12
 12

POINT_DATA	27
SCALARS	u1	float 1
LOOKUP_TABLE	default
0.0
-0.011
-0.023
0.0
-0.011
-0.023
0.0
-0.011
-0.023
-0.0
-0.011
-0.023
-0.0
-0.011
-0.023
0.0
-0.011
-0.023
-0.0
-0.011
-0.023
-0.0
-0.011
-0.023
-0.0
-0.011
-0.023

SCALARS	u2	float 1
LOOKUP_TABLE	default
0.0
0.0
0.0
-0.009
-0.009
-0.009
-0.018
-0.018
-0.018
-0.0
-0.0
0.0
-0.009
-0.009
-0.009
-0.018
-0.018
-0.018
0.0
-0.0
-0.0
-0.009
-0.009
-0.009
-0.018
-0.018
-0.018

SCALARS	u3	float 1
LOOKUP_TABLE	default
0.0
0.0
0.0
0.0
0.0
0.0
0.0
0.0
0.0
0.038
0.038
0.038
0.038
0.038
0.038
0.038
0.038
0.038
0.077
0.077
0.077
0.077
0.077
0.077
0.077
0.077
0.077

SCALARS	u4	float 1
LOOKUP_TABLE	default
299.52
299.52
299.52
299.52
299.52
299.52
299.52
299.52
299.52
299.52
299.52
299.52
299.52
299.52
299.52
299.52
299.52
299.52
299.52
299.52
299.52
299.52
299.52
299.52
299.52
299.52
299.52

VECTORS	u 	float 
0.0	0.0	0.0
-0.0113336469	0.0	0.0
-0.0226672937	0.0	0.0
0.0	-0.0090669175	0.0
-0.0113336469	-0.0090669175	0.0
-0.0226672937	-0.0090669175	0.0
0.0	-0.018133835	0.0
-0.0113336469	-0.018133835	0.0
-0.0226672937	-0.018133835	0.0
-0.0	-0.0	0.0383625136
-0.0113336469	-0.0	0.0383625136
-0.0226672937	0.0	0.0383625136
-0.0	-0.0090669175	0.0383625136
-0.0113336469	-0.0090669175	0.0383625136
-0.0226672937	-0.0090669175	0.0383625136
0.0	-0.018133835	0.0383625136
-0.0113336469	-0.018133835	0.0383625136
-0.0226672937	-0.018133835	0.0383625136
-0.0	0.0	0.0767250271
-0.0113336469	-0.0	0.0767250271
-0.0226672937	-0.0	0.0767250271
-0.0	-0.0090669175	0.0767250271
-0.0113336469	-0.0090669175	0.0767250271
-0.0226672937	-0.0090669175	0.0767250271
-0.0	-0.018133835	0.0767250271
-0.0113336469	-0.018133835	0.0767250271
-0.0226672937	-0.018133835	0.0767250271

VECTORS	v 	float 
0.0	0.0	0.0
-0.0223528723	0.0	0.0
-0.0447057445	0.0	0.0
0.0	-0.0178822978	0.0
-0.0223528723	-0.0178822978	0.0
-0.0447057445	-0.0178822978	0.0
0.0	-0.0357645956	0.0
-0.0223528723	-0.0357645956	0.0
-0.0447057445	-0.0357645956	0.0
-0.0	-0.0	0.0769973697
-0.0223528723	-0.0	0.0769973697
-0.0447057445	0.0	0.0769973697
0.0	-0.0178822978	0.0769973697
-0.0223528723	-0.0178822978	0.0769973697
-0.0447057445	-0.0178822978	0.0769973697
0.0	-0.0357645956	0.0769973697
-0.0223528723	-0.0357645956	0.0769973697
-0.0447057445	-0.0357645956	0.0769973697
0.0	0.0	0.1539947394
-0.0223528723	0.0	0.1539947394
-0.0447057445	-0.0	0.1539947394
0.0	-0.0178822978	0.1539947394
-0.0223528723	-0.0178822978	0.1539947394
-0.0447057445	-0.0178822978	0.1539947394
0.0	-0.0357645956	0.1539947394
-0.0223528723	-0.0357645956	0.1539947394
-0.0447057445	-0.0357645956	0.1539947394

VECTORS	a 	float 
0.0	0.0	0.0
-1.6536527949	0.0	0.0
-3.3073055899	0.0	0.0
0.0	-1.322922236	0.0
-1.6536527949	-1.322922236	0.0
-3.3073055899	-1.322922236	0.0
0.0	-2.6458444719	0.0
-1.6536527949	-2.6458444719	0.0
-3.3073055899	-2.6458444719	0.0
-0.0	0.0	5.6987848567
-1.6536527949	-0.0	5.6987848567
-3.3073055899	0.0	5.6987848567
-0.0	-1.322922236	5.6987848567
-1.6536527949	-1.322922236	5.6987848567
-3.3073055899	-1.322922236	5.6987848567
-0.0	-2.6458444719	5.6987848567
-1.6536527949	-2.6458444719	5.6987848567
-3.3073055899	-2.6458444719	5.6987848567
-0.0	0.0	11.3975697134
-1.6536527949	0.0	11.3975697134
-3.3073055899	-0.0	11.3975697134
-0.0	-1.322922236	11.3975697134
-1.6536527949	-1.322922236	11.3975697134
-3.3073055899	-1.322922236	11.3975697134
-0.0	-2.6458444719	11.3975697134
-1.6536527949	-2.6458444719	11.3975697134
-3.3073055899	-2.6458444719	11.3975697134

SCALARS	theta	float 1
LOOKUP_TABLE	default
299.5195866926
299.5195866926
299.5195866926
299.5195866926
299.5195866926
299.5195866926
299.5195866926
299.5195866926
299.5195866926
299.5195866926
299.5195866926
299.5195866926
299.5195866926
299.5195866926
299.5195866926
299.5195866926
299.5195866926
299.5195866926
299.5195866926
299.5195866926
299.5195866926
299.5195866926
299.5195866926
299.5195866926
299.5195866926
299.5195866926
299.5195866926

SCALARS	sig_11	float	1
LOOKUP_TABLE	default
-2.3e-09
-2.3e-09
-2.3e-09
-2.3e-09
-2.3e-09
-2.3e-09
-2.3e-09
-2.3e-09
-2.3e-09
-2.3e-09
-2.3e-09
-2.3e-09
-2.3e-09
-2.3e-09
-2.3e-09
-2.3e-09
-2.3e-09
-2.3e-09
-2.3e-09
-2.3e-09
-2.4e-09
-2.3e-09
-2.3e-09
-2.3e-09
-2.3e-09
-2.3e-09
-2.3e-09

SCALARS	sig_22	float	1
LOOKUP_TABLE	default
-2.3e-09
-2.3e-09
-2.3e-09
-2.3e-09
-2.3e-09
-2.3e-09
-2.3e-09
-2.3e-09
-2.3e-09
-2.3e-09
-2.3e-09
-2.3e-09
-2.3e-09
-2.3e-09
-2.3e-09
-2.3e-09
-2.3e-09
-2.3e-09
-2.3e-09
-2.3e-09
-2.4e-09
-2.3e-09
-2.3e-09
-2.3e-09
-2.3e-09
-2.3e-09
-2.3e-09

SCALARS	sig_33	float	1
LOOKUP_TABLE	default
124.9881700335
124.9881700335
124.9881700335
124.9881700335
124.9881700335
124.9881700335
124.9881700335
124.9881700335
124.9881700335
124.9881700335
124.9881700335
124.9881700335
124.9881700335
124.9881700335
124.9881700335
124.9881700335
124.9881700335
124.9881700335
124.9881700335
124.9881700335
124.9881700335
124.9881700335
124.9881700335
124.9881700335
124.9881700335
124.9881700335
124.9881700335

SCALARS vonMises	float	1
LOOKUP_TABLE	default
88.3799826004
88.3799826004
88.3799826004
88.3799826004
88.3799826004
88.3799826004
88.3799826004
88.3799826004
88.3799826004
88.3799826004
88.3799826004
88.3799826004
88.3799826004
88.3799826004
88.3799826004
88.3799826004
88.3799826004
88.3799826004
88.3799826004
88.3799826004
88.3799826004
88.3799826004
88.3799826004
88.3799826004
88.3799826004
88.3799826004
88.3799826004
