# vtk DataFile Version 2.0
Results
ASCII
DATASET UNSTRUCTURED_GRID
POINTS         27           float
0.0	0.0	0.0	
50.0	0.0	0.0	
100.0	0.0	0.0	
0.0	40.0	0.0	
50.0	40.0	0.0	
100.0	40.0	0.0	
0.0	80.0	0.0	
50.0	80.0	0.0	
100.0	80.0	0.0	
0.0	0.0	70.0	
50.0	0.0	70.0	
100.0	0.0	70.0	
0.0	40.0	70.0	
50.0	40.0	70.0	
100.0	40.0	70.0	
0.0	80.0	70.0	
50.0	80.0	70.0	
100.0	80.0	70.0	
0.0	0.0	140.0	
50.0	0.0	140.0	
100.0	0.0	140.0	
0.0	40.0	140.0	
50.0	40.0	140.0	
100.0	40.0	140.0	
0.0	80.0	140.0	
50.0	80.0	140.0	
100.0	80.0	140.0	

CELLS	8	72
 8	0	1	4	3	9	10	13	12	
 8	1	2	5	4	10	11	14	13	
 8	4	5	8	7	13	14	17	16	
 8	3	4	7	6	12	13	16	15	
 8	9	10	13	12	18	19	22	21	
 8	10	11	14	13	19	20	23	22	
 8	13	14	17	16	22	23	26	25	
 8	12	13	16	15	21	22	25	24	

CELL_TYPES	8
 12
 12
 12
 12
 12
 12
 12
 12

POINT_DATA	27
SCALARS	u1	float 1
LOOKUP_TABLE	default
0.0
-0.001
-0.002
0.0
-0.001
-0.002
0.0
-0.001
-0.002
-0.0
-0.001
-0.002
0.0
-0.001
-0.002
0.0
-0.001
-0.002
0.0
-0.001
-0.002
-0.0
-0.001
-0.002
-0.0
-0.001
-0.002

SCALARS	u2	float 1
LOOKUP_TABLE	default
0.0
0.0
0.0
-0.001
-0.001
-0.001
-0.001
-0.001
-0.001
0.0
0.0
-0.0
-0.001
-0.001
-0.001
-0.001
-0.001
-0.001
0.0
0.0
0.0
-0.001
-0.001
-0.001
-0.001
-0.001
-0.001

SCALARS	u3	float 1
LOOKUP_TABLE	default
0.0
0.0
0.0
0.0
0.0
0.0
0.0
0.0
0.0
-0.001
-0.001
-0.001
-0.001
-0.001
-0.001
-0.001
-0.001
-0.001
-0.002
-0.002
-0.002
-0.002
-0.002
-0.002
-0.002
-0.002
-0.002

SCALARS	u4	float 1
LOOKUP_TABLE	default
299.846
299.846
299.846
299.846
299.846
299.846
299.846
299.846
299.846
299.846
299.846
299.846
299.846
299.846
299.846
299.846
299.846
299.846
299.846
299.846
299.846
299.846
299.846
299.846
299.846
299.846
299.846

VECTORS	u 	float 
0.0	0.0	0.0
-0.0007683522	0.0	0.0
-0.0015367044	0.0	0.0
0.0	-0.0006146818	0.0
-0.0007683522	-0.0006146818	0.0
-0.0015367044	-0.0006146818	0.0
0.0	-0.0012293635	0.0
-0.0007683522	-0.0012293635	0.0
-0.0015367044	-0.0012293635	0.0
-0.0	0.0	-0.0010756931
-0.0007683522	0.0	-0.0010756931
-0.0015367044	-0.0	-0.0010756931
0.0	-0.0006146818	-0.0010756931
-0.0007683522	-0.0006146818	-0.0010756931
-0.0015367044	-0.0006146818	-0.0010756931
0.0	-0.0012293635	-0.0010756931
-0.0007683522	-0.0012293635	-0.0010756931
-0.0015367044	-0.0012293635	-0.0010756931
0.0	0.0	-0.0021513862
-0.0007683522	0.0	-0.0021513862
-0.0015367044	0.0	-0.0021513862
-0.0	-0.0006146818	-0.0021513862
-0.0007683522	-0.0006146818	-0.0021513862
-0.0015367044	-0.0006146818	-0.0021513862
-0.0	-0.0012293635	-0.0021513862
-0.0007683522	-0.0012293635	-0.0021513862
-0.0015367044	-0.0012293635	-0.0021513862

VECTORS	v 	float 
0.0	0.0	0.0
2.56203e-05	0.0	0.0
5.12405e-05	0.0	0.0
0.0	2.04962e-05	0.0
2.56203e-05	2.04962e-05	0.0
5.12405e-05	2.04962e-05	0.0
0.0	4.09924e-05	0.0
2.56203e-05	4.09924e-05	0.0
5.12405e-05	4.09924e-05	0.0
-0.0	0.0	-0.0001336294
2.56203e-05	-0.0	-0.0001336294
5.12405e-05	0.0	-0.0001336294
0.0	2.04962e-05	-0.0001336294
2.56203e-05	2.04962e-05	-0.0001336294
5.12405e-05	2.04962e-05	-0.0001336294
0.0	4.09924e-05	-0.0001336294
2.56203e-05	4.09924e-05	-0.0001336294
5.12405e-05	4.09924e-05	-0.0001336294
-0.0	0.0	-0.0002672588
2.56203e-05	0.0	-0.0002672588
5.12405e-05	-0.0	-0.0002672588
-0.0	2.04962e-05	-0.0002672588
2.56203e-05	2.04962e-05	-0.0002672588
5.12405e-05	2.04962e-05	-0.0002672588
-0.0	4.09924e-05	-0.0002672588
2.56203e-05	4.09924e-05	-0.0002672588
5.12405e-05	4.09924e-05	-0.0002672588

VECTORS	a 	float 
0.0	0.0	0.0
-8.9318689329	0.0	0.0
-17.8637378659	0.0	0.0
0.0	-7.1454951464	0.0
-8.9318689329	-7.1454951464	0.0
-17.8637378659	-7.1454951464	0.0
0.0	-14.2909902927	0.0
-8.931868933	-14.2909902927	0.0
-17.8637378659	-14.2909902927	0.0
-0.0	0.0	30.771260353
-8.931868933	-0.0	30.771260353
-17.8637378659	0.0	30.771260353
0.0	-7.1454951463	30.771260353
-8.931868933	-7.1454951464	30.771260353
-17.8637378659	-7.1454951464	30.771260353
0.0	-14.2909902927	30.771260353
-8.931868933	-14.2909902927	30.771260353
-17.8637378659	-14.2909902927	30.771260353
-0.0	0.0	61.5425207061
-8.931868933	0.0	61.5425207061
-17.863737866	-0.0	61.5425207061
-0.0	-7.1454951463	61.542520706
-8.931868933	-7.1454951464	61.5425207061
-17.863737866	-7.1454951464	61.5425207061
-0.0	-14.2909902927	61.542520706
-8.931868933	-14.2909902927	61.5425207061
-17.863737866	-14.2909902927	61.5425207061

SCALARS	theta	float 1
LOOKUP_TABLE	default
299.8463267411
299.8463267411
299.8463267411
299.8463267411
299.8463267411
299.8463267411
299.8463267411
299.8463267411
299.8463267411
299.8463267411
299.8463267411
299.8463267411
299.8463267411
299.8463267411
299.8463267411
299.8463267411
299.8463267411
299.8463267411
299.8463267411
299.8463267411
299.8463267411
299.8463267411
299.8463267411
299.8463267411
299.8463267411
299.8463267411
299.8463267411

SCALARS	sig_11	float	1
LOOKUP_TABLE	default
-1e-09
-1e-09
-1e-09
-1e-09
-1e-09
-1e-09
-1e-09
-1e-09
-1e-09
-1e-09
-1e-09
-1e-09
-1e-09
-1e-09
-1e-09
-1e-09
-1e-09
-1e-09
-1e-09
-1e-09
-1e-09
-1e-09
-1e-09
-1e-09
-1e-09
-1e-09
-1e-09

SCALARS	sig_22	float	1
LOOKUP_TABLE	default
-1e-09
-1e-09
-1e-09
-1e-09
-1e-09
-1e-09
-1e-09
-1e-09
-1e-09
-1e-09
-1e-09
-1e-09
-1e-09
-1e-09
-1e-09
-1e-09
-1e-09
-1e-09
-1e-09
-1e-09
-1e-09
-1e-09
-1e-09
-1e-09
-1e-09
-1e-09
-1e-09

SCALARS	sig_33	float	1
LOOKUP_TABLE	default
-1e-09
-1e-09
-1e-09
-1e-09
-1e-09
-1e-09
-1e-09
-1e-09
-1e-09
-1e-09
-1e-09
-1e-09
-1e-09
-1e-09
-1e-09
-1e-09
-1e-09
-1e-09
-1e-09
-1e-09
-1e-09
-1e-09
-1e-09
-1e-09
-1e-09
-1e-09
-1e-09

SCALARS vonMises	float	1
LOOKUP_TABLE	default
0.0
0.0
0.0
0.0
0.0
0.0
0.0
0.0
0.0
0.0
0.0
0.0
0.0
0.0
0.0
0.0
0.0
0.0
0.0
0.0
0.0
0.0
0.0
0.0
0.0
0.0
0.0
