# vtk DataFile Version 2.0
Results
ASCII
DATASET UNSTRUCTURED_GRID
POINTS         27           float
0.0	0.0	0.0	
50.0	0.0	0.0	
100.0	0.0	0.0	
0.0	40.0	0.0	
50.0	40.0	0.0	
100.0	40.0	0.0	
0.0	80.0	0.0	
50.0	80.0	0.0	
100.0	80.0	0.0	
0.0	0.0	70.0	
50.0	0.0	70.0	
100.0	0.0	70.0	
0.0	40.0	70.0	
50.0	40.0	70.0	
100.0	40.0	70.0	
0.0	80.0	70.0	
50.0	80.0	70.0	
100.0	80.0	70.0	
0.0	0.0	140.0	
50.0	0.0	140.0	
100.0	0.0	140.0	
0.0	40.0	140.0	
50.0	40.0	140.0	
100.0	40.0	140.0	
0.0	80.0	140.0	
50.0	80.0	140.0	
100.0	80.0	140.0	

CELLS	8	72
 8	0	1	4	3	9	10	13	12	
 8	1	2	5	4	10	11	14	13	
 8	4	5	8	7	13	14	17	16	
 8	3	4	7	6	12	13	16	15	
 8	9	10	13	12	18	19	22	21	
 8	10	11	14	13	19	20	23	22	
 8	13	14	17	16	22	23	26	25	
 8	12	13	16	15	21	22	25	24	

CELL_TYPES	8
 12
 12
 12
 12
 12
 12
 12
 12

POINT_DATA	27
SCALARS	u1	float 1
LOOKUP_TABLE	default
0.0
-0.011
-0.023
0.0
-0.011
-0.023
0.0
-0.011
-0.023
0.0
-0.011
-0.023
0.0
-0.011
-0.023
0.0
-0.011
-0.023
0.0
-0.011
-0.023
0.0
-0.011
-0.023
0.0
-0.011
-0.023

SCALARS	u2	float 1
LOOKUP_TABLE	default
0.0
0.0
0.0
-0.009
-0.009
-0.009
-0.018
-0.018
-0.018
0.0
-0.0
-0.0
-0.009
-0.009
-0.009
-0.018
-0.018
-0.018
0.0
-0.0
-0.0
-0.009
-0.009
-0.009
-0.018
-0.018
-0.018

SCALARS	u3	float 1
LOOKUP_TABLE	default
0.0
0.0
0.0
0.0
0.0
0.0
0.0
0.0
0.0
0.038
0.038
0.038
0.038
0.038
0.038
0.038
0.038
0.038
0.076
0.076
0.076
0.076
0.076
0.076
0.076
0.076
0.076

SCALARS	u4	float 1
LOOKUP_TABLE	default
299.489
299.489
299.489
299.489
299.489
299.489
299.489
299.489
299.489
299.489
299.489
299.489
299.489
299.489
299.489
299.489
299.489
299.489
299.489
299.489
299.489
299.489
299.489
299.489
299.489
299.489
299.489

VECTORS	u 	float 
0.0	0.0	0.0
-0.0114856985	0.0	0.0
-0.022971397	0.0	0.0
0.0	-0.0091885588	0.0
-0.0114856985	-0.0091885588	0.0
-0.022971397	-0.0091885588	0.0
0.0	-0.0183771176	0.0
-0.0114856985	-0.0183771176	0.0
-0.022971397	-0.0183771176	0.0
0.0	0.0	0.0381496416
-0.0114856985	-0.0	0.0381496416
-0.022971397	-0.0	0.0381496416
0.0	-0.0091885588	0.0381496416
-0.0114856985	-0.0091885588	0.0381496416
-0.022971397	-0.0091885588	0.0381496416
0.0	-0.0183771176	0.0381496416
-0.0114856985	-0.0183771176	0.0381496416
-0.022971397	-0.0183771176	0.0381496416
0.0	0.0	0.0762992833
-0.0114856985	-0.0	0.0762992833
-0.022971397	-0.0	0.0762992833
0.0	-0.0091885588	0.0762992833
-0.0114856985	-0.0091885588	0.0762992833
-0.022971397	-0.0091885588	0.0762992833
0.0	-0.0183771176	0.0762992833
-0.0114856985	-0.0183771176	0.0762992833
-0.022971397	-0.0183771176	0.0762992833

VECTORS	v 	float 
0.0	0.0	0.0
-0.0223526807	0.0	0.0
-0.0447053615	0.0	0.0
0.0	-0.0178821446	0.0
-0.0223526807	-0.0178821446	0.0
-0.0447053615	-0.0178821446	0.0
0.0	-0.0357642892	0.0
-0.0223526807	-0.0357642892	0.0
-0.0447053615	-0.0357642892	0.0
-0.0	0.0	0.0769976385
-0.0223526807	0.0	0.0769976385
-0.0447053615	-0.0	0.0769976385
0.0	-0.0178821446	0.0769976385
-0.0223526807	-0.0178821446	0.0769976385
-0.0447053615	-0.0178821446	0.0769976385
0.0	-0.0357642892	0.0769976385
-0.0223526807	-0.0357642892	0.0769976385
-0.0447053615	-0.0357642892	0.0769976385
-0.0	0.0	0.153995277
-0.0223526807	0.0	0.153995277
-0.0447053615	0.0	0.153995277
-0.0	-0.0178821446	0.153995277
-0.0223526807	-0.0178821446	0.153995277
-0.0447053615	-0.0178821446	0.153995277
-0.0	-0.0357642892	0.153995277
-0.0223526807	-0.0357642892	0.153995277
-0.0447053615	-0.0357642892	0.153995277

VECTORS	a 	float 
0.0	0.0	0.0
-3.441266856	0.0	0.0
-6.8825337121	0.0	0.0
0.0	-2.7530134848	0.0
-3.441266856	-2.7530134848	0.0
-6.8825337121	-2.7530134848	0.0
0.0	-5.5060269696	0.0
-3.441266856	-5.5060269696	0.0
-6.882533712	-5.5060269696	0.0
-0.0	0.0	11.8594371246
-3.441266856	-0.0	11.8594371246
-6.8825337121	0.0	11.8594371246
-0.0	-2.7530134848	11.8594371246
-3.441266856	-2.7530134848	11.8594371246
-6.882533712	-2.7530134848	11.8594371246
0.0	-5.5060269696	11.8594371246
-3.441266856	-5.5060269696	11.8594371246
-6.8825337121	-5.5060269696	11.8594371246
-0.0	0.0	23.7188742492
-3.441266856	0.0	23.7188742492
-6.8825337121	-0.0	23.7188742492
-0.0	-2.7530134848	23.7188742492
-3.441266856	-2.7530134848	23.7188742492
-6.8825337121	-2.7530134848	23.7188742492
0.0	-5.5060269696	23.7188742492
-3.441266856	-5.5060269696	23.7188742492
-6.8825337121	-5.5060269696	23.7188742492

SCALARS	theta	float 1
LOOKUP_TABLE	default
299.4891761295
299.4891761295
299.4891761295
299.4891761295
299.4891761295
299.4891761295
299.4891761295
299.4891761295
299.4891761295
299.4891761295
299.4891761295
299.4891761295
299.4891761295
299.4891761295
299.4891761295
299.4891761295
299.4891761295
299.4891761295
299.4891761295
299.4891761295
299.4891761295
299.4891761295
299.4891761295
299.4891761295
299.4891761295
299.4891761295
299.4891761295

SCALARS	sig_11	float	1
LOOKUP_TABLE	default
-2.3e-09
-2.3e-09
-2.3e-09
-2.3e-09
-2.3e-09
-2.3e-09
-2.3e-09
-2.3e-09
-2.3e-09
-2.3e-09
-2.3e-09
-2.3e-09
-2.3e-09
-2.3e-09
-2.3e-09
-2.3e-09
-2.3e-09
-2.3e-09
-2.3e-09
-2.3e-09
-2.3e-09
-2.3e-09
-2.3e-09
-2.3e-09
-2.4e-09
-2.3e-09
-2.3e-09

SCALARS	sig_22	float	1
LOOKUP_TABLE	default
-2.3e-09
-2.3e-09
-2.3e-09
-2.3e-09
-2.3e-09
-2.3e-09
-2.3e-09
-2.3e-09
-2.3e-09
-2.3e-09
-2.3e-09
-2.3e-09
-2.3e-09
-2.3e-09
-2.3e-09
-2.3e-09
-2.3e-09
-2.3e-09
-2.3e-09
-2.3e-09
-2.3e-09
-2.3e-09
-2.3e-09
-2.3e-09
-2.4e-09
-2.3e-09
-2.3e-09

SCALARS	sig_33	float	1
LOOKUP_TABLE	default
124.9893098704
124.9893098704
124.9893098704
124.9893098704
124.9893098704
124.9893098704
124.9893098704
124.9893098704
124.9893098704
124.9893098704
124.9893098704
124.9893098704
124.9893098704
124.9893098704
124.9893098704
124.9893098704
124.9893098704
124.9893098704
124.9893098704
124.9893098704
124.9893098704
124.9893098704
124.9893098704
124.9893098704
124.9893098703
124.9893098704
124.9893098704

SCALARS vonMises	float	1
LOOKUP_TABLE	default
88.3807885868
88.3807885868
88.3807885868
88.3807885868
88.3807885868
88.3807885868
88.3807885868
88.3807885868
88.3807885868
88.3807885868
88.3807885868
88.3807885868
88.3807885868
88.3807885868
88.3807885868
88.3807885868
88.3807885868
88.3807885868
88.3807885868
88.3807885868
88.3807885868
88.3807885868
88.3807885868
88.3807885868
88.3807885868
88.3807885868
88.3807885868
