# vtk DataFile Version 2.0
Results
ASCII
DATASET UNSTRUCTURED_GRID
POINTS         27           float
0.0	0.0	0.0	
50.0	0.0	0.0	
100.0	0.0	0.0	
0.0	40.0	0.0	
50.0	40.0	0.0	
100.0	40.0	0.0	
0.0	80.0	0.0	
50.0	80.0	0.0	
100.0	80.0	0.0	
0.0	0.0	70.0	
50.0	0.0	70.0	
100.0	0.0	70.0	
0.0	40.0	70.0	
50.0	40.0	70.0	
100.0	40.0	70.0	
0.0	80.0	70.0	
50.0	80.0	70.0	
100.0	80.0	70.0	
0.0	0.0	140.0	
50.0	0.0	140.0	
100.0	0.0	140.0	
0.0	40.0	140.0	
50.0	40.0	140.0	
100.0	40.0	140.0	
0.0	80.0	140.0	
50.0	80.0	140.0	
100.0	80.0	140.0	

CELLS	8	72
 8	0	1	4	3	9	10	13	12	
 8	1	2	5	4	10	11	14	13	
 8	4	5	8	7	13	14	17	16	
 8	3	4	7	6	12	13	16	15	
 8	9	10	13	12	18	19	22	21	
 8	10	11	14	13	19	20	23	22	
 8	13	14	17	16	22	23	26	25	
 8	12	13	16	15	21	22	25	24	

CELL_TYPES	8
 12
 12
 12
 12
 12
 12
 12
 12

POINT_DATA	27
SCALARS	u1	float 1
LOOKUP_TABLE	default
0.0
-0.011
-0.023
0.0
-0.011
-0.023
0.0
-0.011
-0.023
-0.0
-0.011
-0.023
-0.0
-0.011
-0.023
-0.0
-0.011
-0.023
-0.0
-0.011
-0.023
-0.0
-0.011
-0.023
-0.0
-0.011
-0.023

SCALARS	u2	float 1
LOOKUP_TABLE	default
0.0
0.0
0.0
-0.009
-0.009
-0.009
-0.018
-0.018
-0.018
-0.0
0.0
-0.0
-0.009
-0.009
-0.009
-0.018
-0.018
-0.018
-0.0
-0.0
-0.0
-0.009
-0.009
-0.009
-0.018
-0.018
-0.018

SCALARS	u3	float 1
LOOKUP_TABLE	default
0.0
0.0
0.0
0.0
0.0
0.0
0.0
0.0
0.0
0.038
0.038
0.038
0.038
0.038
0.038
0.038
0.038
0.038
0.077
0.077
0.077
0.077
0.077
0.077
0.077
0.077
0.077

SCALARS	u4	float 1
LOOKUP_TABLE	default
299.53
299.53
299.53
299.53
299.53
299.53
299.53
299.53
299.53
299.53
299.53
299.53
299.53
299.53
299.53
299.53
299.53
299.53
299.53
299.53
299.53
299.53
299.53
299.53
299.53
299.53
299.53

VECTORS	u 	float 
0.0	0.0	0.0
-0.0112804325	0.0	0.0
-0.0225608649	0.0	0.0
0.0	-0.009024346	0.0
-0.0112804325	-0.009024346	0.0
-0.0225608649	-0.009024346	0.0
0.0	-0.0180486919	0.0
-0.0112804325	-0.0180486919	0.0
-0.0225608649	-0.0180486919	0.0
-0.0	-0.0	0.0384370136
-0.0112804325	0.0	0.0384370136
-0.0225608649	-0.0	0.0384370136
-0.0	-0.009024346	0.0384370136
-0.0112804325	-0.009024346	0.0384370136
-0.0225608649	-0.009024346	0.0384370136
-0.0	-0.0180486919	0.0384370136
-0.0112804325	-0.0180486919	0.0384370136
-0.0225608649	-0.0180486919	0.0384370136
-0.0	-0.0	0.0768740272
-0.0112804325	-0.0	0.0768740272
-0.0225608649	-0.0	0.0768740272
-0.0	-0.009024346	0.0768740272
-0.0112804325	-0.009024346	0.0768740272
-0.0225608649	-0.009024346	0.0768740272
-0.0	-0.0180486919	0.0768740272
-0.0112804325	-0.0180486919	0.0768740272
-0.0225608649	-0.0180486919	0.0768740272

VECTORS	v 	float 
0.0	0.0	0.0
0.0223377373	0.0	0.0
0.0446754747	0.0	0.0
0.0	0.0178701899	0.0
0.0223377373	0.0178701899	0.0
0.0446754747	0.0178701899	0.0
0.0	0.0357403797	0.0
0.0223377373	0.0357403797	0.0
0.0446754747	0.0357403797	0.0
0.0	-0.0	-0.0770185748
0.0223377373	-0.0	-0.0770185748
0.0446754747	0.0	-0.0770185748
0.0	0.0178701899	-0.0770185748
0.0223377373	0.0178701899	-0.0770185748
0.0446754747	0.0178701899	-0.0770185748
0.0	0.0357403797	-0.0770185748
0.0223377373	0.0357403797	-0.0770185748
0.0446754747	0.0357403797	-0.0770185748
-0.0	-0.0	-0.1540371497
0.0223377373	-0.0	-0.1540371497
0.0446754747	0.0	-0.1540371497
-0.0	0.0178701899	-0.1540371497
0.0223377373	0.0178701899	-0.1540371497
0.0446754747	0.0178701899	-0.1540371497
-0.0	0.0357403797	-0.1540371497
0.0223377373	0.0357403797	-0.1540371497
0.0446754747	0.0357403797	-0.1540371497

VECTORS	a 	float 
0.0	0.0	0.0
1.0279842593	0.0	0.0
2.0559685187	0.0	0.0
0.0	0.8223874075	0.0
1.0279842593	0.8223874075	0.0
2.0559685187	0.8223874075	0.0
0.0	1.644774815	0.0
1.0279842593	1.644774815	0.0
2.0559685187	1.644774815	0.0
0.0	-0.0	-3.5425616351
1.0279842593	0.0	-3.5425616351
2.0559685187	0.0	-3.5425616351
0.0	0.8223874075	-3.5425616351
1.0279842593	0.8223874075	-3.5425616351
2.0559685187	0.8223874075	-3.5425616351
0.0	1.644774815	-3.5425616351
1.0279842593	1.644774815	-3.5425616351
2.0559685187	1.644774815	-3.5425616351
0.0	-0.0	-7.0851232702
1.0279842593	0.0	-7.0851232702
2.0559685187	0.0	-7.0851232702
0.0	0.8223874075	-7.0851232702
1.0279842593	0.8223874075	-7.0851232702
2.0559685187	0.8223874075	-7.0851232702
0.0	1.644774815	-7.0851232702
1.0279842593	1.644774815	-7.0851232702
2.0559685187	1.644774815	-7.0851232702

SCALARS	theta	float 1
LOOKUP_TABLE	default
299.5302296094
299.5302296094
299.5302296094
299.5302296094
299.5302296094
299.5302296094
299.5302296094
299.5302296094
299.5302296094
299.5302296094
299.5302296094
299.5302296094
299.5302296094
299.5302296094
299.5302296094
299.5302296094
299.5302296094
299.5302296094
299.5302296094
299.5302296094
299.5302296094
299.5302296094
299.5302296094
299.5302296094
299.5302296094
299.5302296094
299.5302296094

SCALARS	sig_11	float	1
LOOKUP_TABLE	default
-2.3e-09
-2.3e-09
-2.3e-09
-2.3e-09
-2.3e-09
-2.3e-09
-2.3e-09
-2.3e-09
-2.3e-09
-2.3e-09
-2.3e-09
-2.3e-09
-2.3e-09
-2.3e-09
-2.3e-09
-2.3e-09
-2.3e-09
-2.3e-09
-2.3e-09
-2.3e-09
-2.3e-09
-2.3e-09
-2.3e-09
-2.3e-09
-2.3e-09
-2.3e-09
-2.3e-09

SCALARS	sig_22	float	1
LOOKUP_TABLE	default
-2.3e-09
-2.3e-09
-2.3e-09
-2.3e-09
-2.3e-09
-2.3e-09
-2.3e-09
-2.3e-09
-2.4e-09
-2.3e-09
-2.3e-09
-2.3e-09
-2.3e-09
-2.3e-09
-2.3e-09
-2.3e-09
-2.3e-09
-2.3e-09
-2.3e-09
-2.3e-09
-2.3e-09
-2.3e-09
-2.3e-09
-2.3e-09
-2.3e-09
-2.3e-09
-2.3e-09

SCALARS	sig_33	float	1
LOOKUP_TABLE	default
124.9877710456
124.9877710456
124.9877710455
124.9877710456
124.9877710456
124.9877710456
124.9877710456
124.9877710456
124.9877710455
124.9877710456
124.9877710456
124.9877710456
124.9877710456
124.9877710456
124.9877710456
124.9877710456
124.9877710456
124.9877710456
124.9877710456
124.9877710456
124.9877710456
124.9877710456
124.9877710456
124.9877710456
124.9877710456
124.9877710456
124.9877710456

SCALARS vonMises	float	1
LOOKUP_TABLE	default
88.3797004734
88.3797004734
88.3797004734
88.3797004734
88.3797004734
88.3797004734
88.3797004734
88.3797004734
88.3797004734
88.3797004734
88.3797004734
88.3797004734
88.3797004734
88.3797004734
88.3797004734
88.3797004734
88.3797004734
88.3797004734
88.3797004734
88.3797004734
88.3797004734
88.3797004734
88.3797004734
88.3797004734
88.3797004734
88.3797004734
88.3797004734
