# vtk DataFile Version 2.0
Results
ASCII
DATASET UNSTRUCTURED_GRID
POINTS         27           float
0.0	0.0	0.0	
50.0	0.0	0.0	
100.0	0.0	0.0	
0.0	40.0	0.0	
50.0	40.0	0.0	
100.0	40.0	0.0	
0.0	80.0	0.0	
50.0	80.0	0.0	
100.0	80.0	0.0	
0.0	0.0	70.0	
50.0	0.0	70.0	
100.0	0.0	70.0	
0.0	40.0	70.0	
50.0	40.0	70.0	
100.0	40.0	70.0	
0.0	80.0	70.0	
50.0	80.0	70.0	
100.0	80.0	70.0	
0.0	0.0	140.0	
50.0	0.0	140.0	
100.0	0.0	140.0	
0.0	40.0	140.0	
50.0	40.0	140.0	
100.0	40.0	140.0	
0.0	80.0	140.0	
50.0	80.0	140.0	
100.0	80.0	140.0	

CELLS	8	72
 8	0	1	4	3	9	10	13	12	
 8	1	2	5	4	10	11	14	13	
 8	4	5	8	7	13	14	17	16	
 8	3	4	7	6	12	13	16	15	
 8	9	10	13	12	18	19	22	21	
 8	10	11	14	13	19	20	23	22	
 8	13	14	17	16	22	23	26	25	
 8	12	13	16	15	21	22	25	24	

CELL_TYPES	8
 12
 12
 12
 12
 12
 12
 12
 12

POINT_DATA	27
SCALARS	u1	float 1
LOOKUP_TABLE	default
0.0
-0.012
-0.024
0.0
-0.012
-0.024
0.0
-0.012
-0.024
-0.0
-0.012
-0.024
0.0
-0.012
-0.024
0.0
-0.012
-0.024
-0.0
-0.012
-0.024
-0.0
-0.012
-0.024
-0.0
-0.012
-0.024

SCALARS	u2	float 1
LOOKUP_TABLE	default
0.0
0.0
0.0
-0.009
-0.009
-0.009
-0.019
-0.019
-0.019
0.0
-0.0
-0.0
-0.009
-0.009
-0.009
-0.019
-0.019
-0.019
-0.0
-0.0
-0.0
-0.009
-0.009
-0.009
-0.019
-0.019
-0.019

SCALARS	u3	float 1
LOOKUP_TABLE	default
0.0
0.0
0.0
0.0
0.0
0.0
0.0
0.0
0.0
0.038
0.038
0.038
0.038
0.038
0.038
0.038
0.038
0.038
0.075
0.075
0.075
0.075
0.075
0.075
0.075
0.075
0.075

SCALARS	u4	float 1
LOOKUP_TABLE	default
299.412
299.412
299.412
299.412
299.412
299.412
299.412
299.412
299.412
299.412
299.412
299.412
299.412
299.412
299.412
299.412
299.412
299.412
299.412
299.412
299.412
299.412
299.412
299.412
299.412
299.412
299.412

VECTORS	u 	float 
0.0	0.0	0.0
-0.0118734076	0.0	0.0
-0.0237468152	0.0	0.0
0.0	-0.0094987261	0.0
-0.0118734076	-0.0094987261	0.0
-0.0237468152	-0.0094987261	0.0
0.0	-0.0189974522	0.0
-0.0118734076	-0.0189974522	0.0
-0.0237468152	-0.0189974522	0.0
-0.0	0.0	0.0376068497
-0.0118734076	-0.0	0.0376068497
-0.0237468152	-0.0	0.0376068497
0.0	-0.0094987261	0.0376068497
-0.0118734076	-0.0094987261	0.0376068497
-0.0237468152	-0.0094987261	0.0376068497
0.0	-0.0189974522	0.0376068497
-0.0118734076	-0.0189974522	0.0376068497
-0.0237468152	-0.0189974522	0.0376068497
-0.0	-0.0	0.0752136993
-0.0118734076	-0.0	0.0752136993
-0.0237468152	-0.0	0.0752136993
-0.0	-0.0094987261	0.0752136993
-0.0118734076	-0.0094987261	0.0752136993
-0.0237468152	-0.0094987261	0.0752136993
-0.0	-0.0189974522	0.0752136993
-0.0118734076	-0.0189974522	0.0752136993
-0.0237468152	-0.0189974522	0.0752136993

VECTORS	v 	float 
0.0	0.0	0.0
0.0223369926	0.0	0.0
0.0446739852	0.0	0.0
0.0	0.0178695941	0.0
0.0223369926	0.0178695941	0.0
0.0446739852	0.0178695941	0.0
0.0	0.0357391881	0.0
0.0223369926	0.0357391881	0.0
0.0446739852	0.0357391881	0.0
0.0	0.0	-0.07701962
0.0223369926	0.0	-0.07701962
0.0446739852	-0.0	-0.07701962
-0.0	0.0178695941	-0.07701962
0.0223369926	0.0178695941	-0.07701962
0.0446739852	0.0178695941	-0.07701962
-0.0	0.0357391881	-0.07701962
0.0223369926	0.0357391881	-0.07701962
0.0446739852	0.0357391881	-0.07701962
0.0	-0.0	-0.15403924
0.0223369926	0.0	-0.15403924
0.0446739852	0.0	-0.15403924
0.0	0.0178695941	-0.15403924
0.0223369926	0.0178695941	-0.15403924
0.0446739852	0.0178695941	-0.15403924
0.0	0.0357391881	-0.15403924
0.0223369926	0.0357391881	-0.15403924
0.0446739852	0.0357391881	-0.15403924

VECTORS	a 	float 
0.0	0.0	0.0
7.9996134598	0.0	0.0
15.9992269196	0.0	0.0
0.0	6.3996907678	0.0
7.9996134598	6.3996907678	0.0
15.9992269196	6.3996907678	0.0
0.0	12.7993815356	0.0
7.9996134598	12.7993815356	0.0
15.9992269196	12.7993815356	0.0
0.0	-0.0	-27.5691975953
7.9996134598	0.0	-27.5691975953
15.9992269196	0.0	-27.5691975953
-0.0	6.3996907678	-27.5691975953
7.9996134598	6.3996907678	-27.5691975953
15.9992269196	6.3996907678	-27.5691975953
-0.0	12.7993815356	-27.5691975953
7.9996134598	12.7993815356	-27.5691975953
15.9992269196	12.7993815356	-27.5691975953
0.0	-0.0	-55.1383951907
7.9996134598	0.0	-55.1383951907
15.9992269196	0.0	-55.1383951907
0.0	6.3996907678	-55.1383951907
7.9996134598	6.3996907678	-55.1383951907
15.9992269196	6.3996907678	-55.1383951907
0.0	12.7993815356	-55.1383951907
7.9996134598	12.7993815356	-55.1383951907
15.9992269196	12.7993815356	-55.1383951907

SCALARS	theta	float 1
LOOKUP_TABLE	default
299.4116326887
299.4116326887
299.4116326887
299.4116326887
299.4116326887
299.4116326887
299.4116326887
299.4116326887
299.4116326887
299.4116326887
299.4116326887
299.4116326887
299.4116326887
299.4116326887
299.4116326887
299.4116326887
299.4116326887
299.4116326887
299.4116326887
299.4116326887
299.4116326887
299.4116326887
299.4116326887
299.4116326887
299.4116326887
299.4116326887
299.4116326887

SCALARS	sig_11	float	1
LOOKUP_TABLE	default
-2.3e-09
-2.3e-09
-2.3e-09
-2.3e-09
-2.3e-09
-2.3e-09
-2.3e-09
-2.3e-09
-2.3e-09
-2.3e-09
-2.3e-09
-2.3e-09
-2.3e-09
-2.3e-09
-2.3e-09
-2.3e-09
-2.3e-09
-2.3e-09
-2.3e-09
-2.3e-09
-2.3e-09
-2.3e-09
-2.3e-09
-2.3e-09
-2.3e-09
-2.3e-09
-2.3e-09

SCALARS	sig_22	float	1
LOOKUP_TABLE	default
-2.4e-09
-2.4e-09
-2.3e-09
-2.4e-09
-2.4e-09
-2.3e-09
-2.4e-09
-2.4e-09
-2.4e-09
-2.3e-09
-2.4e-09
-2.3e-09
-2.3e-09
-2.4e-09
-2.3e-09
-2.4e-09
-2.4e-09
-2.4e-09
-2.3e-09
-2.3e-09
-2.3e-09
-2.3e-09
-2.3e-09
-2.3e-09
-2.4e-09
-2.4e-09
-2.4e-09

SCALARS	sig_33	float	1
LOOKUP_TABLE	default
124.9922162829
124.9922162829
124.9922162829
124.9922162829
124.9922162829
124.9922162829
124.9922162829
124.9922162829
124.9922162829
124.9922162829
124.9922162829
124.9922162829
124.9922162829
124.9922162829
124.9922162829
124.9922162829
124.9922162829
124.9922162829
124.9922162829
124.9922162829
124.9922162829
124.9922162829
124.9922162829
124.9922162829
124.9922162829
124.9922162829
124.9922162829

SCALARS vonMises	float	1
LOOKUP_TABLE	default
88.3828437308
88.3828437308
88.3828437308
88.3828437308
88.3828437308
88.3828437308
88.3828437308
88.3828437308
88.3828437308
88.3828437308
88.3828437308
88.3828437308
88.3828437308
88.3828437308
88.3828437308
88.3828437308
88.3828437308
88.3828437308
88.3828437308
88.3828437308
88.3828437308
88.3828437308
88.3828437308
88.3828437308
88.3828437308
88.3828437308
88.3828437308
