# vtk DataFile Version 2.0
Results
ASCII
DATASET UNSTRUCTURED_GRID
POINTS         27           float
0.0	0.0	0.0	
50.0	0.0	0.0	
100.0	0.0	0.0	
0.0	40.0	0.0	
50.0	40.0	0.0	
100.0	40.0	0.0	
0.0	80.0	0.0	
50.0	80.0	0.0	
100.0	80.0	0.0	
0.0	0.0	70.0	
50.0	0.0	70.0	
100.0	0.0	70.0	
0.0	40.0	70.0	
50.0	40.0	70.0	
100.0	40.0	70.0	
0.0	80.0	70.0	
50.0	80.0	70.0	
100.0	80.0	70.0	
0.0	0.0	140.0	
50.0	0.0	140.0	
100.0	0.0	140.0	
0.0	40.0	140.0	
50.0	40.0	140.0	
100.0	40.0	140.0	
0.0	80.0	140.0	
50.0	80.0	140.0	
100.0	80.0	140.0	

CELLS	8	72
 8	0	1	4	3	9	10	13	12	
 8	1	2	5	4	10	11	14	13	
 8	4	5	8	7	13	14	17	16	
 8	3	4	7	6	12	13	16	15	
 8	9	10	13	12	18	19	22	21	
 8	10	11	14	13	19	20	23	22	
 8	13	14	17	16	22	23	26	25	
 8	12	13	16	15	21	22	25	24	

CELL_TYPES	8
 12
 12
 12
 12
 12
 12
 12
 12

POINT_DATA	27
SCALARS	u1	float 1
LOOKUP_TABLE	default
0.0
-0.012
-0.023
0.0
-0.012
-0.023
0.0
-0.012
-0.023
0.0
-0.012
-0.023
0.0
-0.012
-0.023
0.0
-0.012
-0.023
0.0
-0.012
-0.023
0.0
-0.012
-0.023
0.0
-0.012
-0.023

SCALARS	u2	float 1
LOOKUP_TABLE	default
0.0
0.0
0.0
-0.009
-0.009
-0.009
-0.019
-0.019
-0.019
0.0
0.0
0.0
-0.009
-0.009
-0.009
-0.019
-0.019
-0.019
0.0
0.0
0.0
-0.009
-0.009
-0.009
-0.019
-0.019
-0.019

SCALARS	u3	float 1
LOOKUP_TABLE	default
0.0
0.0
0.0
0.0
0.0
0.0
0.0
0.0
0.0
0.038
0.038
0.038
0.038
0.038
0.038
0.038
0.038
0.038
0.076
0.076
0.076
0.076
0.076
0.076
0.076
0.076
0.076

SCALARS	u4	float 1
LOOKUP_TABLE	default
299.439
299.439
299.439
299.439
299.439
299.439
299.439
299.439
299.439
299.439
299.439
299.439
299.439
299.439
299.439
299.439
299.439
299.439
299.439
299.439
299.439
299.439
299.439
299.439
299.439
299.439
299.439

VECTORS	u 	float 
0.0	0.0	0.0
-0.0117365754	0.0	0.0
-0.0234731508	0.0	0.0
0.0	-0.0093892603	0.0
-0.0117365754	-0.0093892603	0.0
-0.0234731508	-0.0093892603	0.0
0.0	-0.0187785206	0.0
-0.0117365754	-0.0187785206	0.0
-0.0234731508	-0.0187785206	0.0
0.0	0.0	0.0377984145
-0.0117365754	0.0	0.0377984145
-0.0234731508	0.0	0.0377984145
0.0	-0.0093892603	0.0377984145
-0.0117365754	-0.0093892603	0.0377984145
-0.0234731508	-0.0093892603	0.0377984145
0.0	-0.0187785206	0.0377984145
-0.0117365754	-0.0187785206	0.0377984145
-0.0234731508	-0.0187785206	0.0377984145
0.0	0.0	0.0755968289
-0.0117365754	0.0	0.0755968289
-0.0234731508	0.0	0.0755968289
0.0	-0.0093892603	0.0755968289
-0.0117365754	-0.0093892603	0.0755968289
-0.0234731508	-0.0093892603	0.0755968289
0.0	-0.0187785206	0.0755968289
-0.0117365754	-0.0187785206	0.0755968289
-0.0234731508	-0.0187785206	0.0755968289

VECTORS	v 	float 
0.0	0.0	0.0
0.0223371645	0.0	0.0
0.0446743289	0.0	0.0
0.0	0.0178697316	0.0
0.0223371645	0.0178697316	0.0
0.0446743289	0.0178697316	0.0
0.0	0.0357394632	0.0
0.0223371645	0.0357394632	0.0
0.0446743289	0.0357394632	0.0
0.0	0.0	-0.0770193788
0.0223371645	0.0	-0.0770193788
0.0446743289	0.0	-0.0770193788
-0.0	0.0178697316	-0.0770193788
0.0223371645	0.0178697316	-0.0770193788
0.0446743289	0.0178697316	-0.0770193788
-0.0	0.0357394632	-0.0770193788
0.0223371645	0.0357394632	-0.0770193788
0.0446743289	0.0357394632	-0.0770193788
0.0	-0.0	-0.1540387576
0.0223371645	0.0	-0.1540387576
0.0446743289	0.0	-0.1540387576
0.0	0.0178697316	-0.1540387576
0.0223371645	0.0178697316	-0.1540387576
0.0446743289	0.0178697316	-0.1540387576
0.0	0.0357394632	-0.1540387576
0.0223371645	0.0357394632	-0.1540387576
0.0446743289	0.0357394632	-0.1540387576

VECTORS	a 	float 
0.0	0.0	0.0
6.3907966079	0.0	0.0
12.7815932157	0.0	0.0
0.0	5.1126372863	0.0
6.3907966079	5.1126372863	0.0
12.7815932157	5.1126372863	0.0
0.0	10.2252745726	0.0
6.3907966079	10.2252745726	0.0
12.7815932157	10.2252745726	0.0
0.0	-0.0	-22.0245603086
6.3907966079	0.0	-22.0245603086
12.7815932157	0.0	-22.0245603086
-0.0	5.1126372863	-22.0245603086
6.3907966079	5.1126372863	-22.0245603086
12.7815932157	5.1126372863	-22.0245603086
-0.0	10.2252745726	-22.0245603086
6.3907966079	10.2252745726	-22.0245603086
12.7815932157	10.2252745726	-22.0245603086
0.0	-0.0	-44.0491206171
6.3907966079	-0.0	-44.0491206171
12.7815932157	0.0	-44.0491206171
0.0	5.1126372863	-44.0491206171
6.3907966079	5.1126372863	-44.0491206171
12.7815932157	5.1126372863	-44.0491206171
0.0	10.2252745726	-44.0491206171
6.3907966079	10.2252745726	-44.0491206171
12.7815932157	10.2252745726	-44.0491206171

SCALARS	theta	float 1
LOOKUP_TABLE	default
299.4389998632
299.4389998632
299.4389998632
299.4389998632
299.4389998632
299.4389998632
299.4389998632
299.4389998632
299.4389998632
299.4389998632
299.4389998632
299.4389998632
299.4389998632
299.4389998632
299.4389998632
299.4389998632
299.4389998632
299.4389998632
299.4389998632
299.4389998632
299.4389998632
299.4389998632
299.4389998632
299.4389998632
299.4389998632
299.4389998632
299.4389998632

SCALARS	sig_11	float	1
LOOKUP_TABLE	default
-2.3e-09
-2.3e-09
-2.3e-09
-2.3e-09
-2.3e-09
-2.3e-09
-2.3e-09
-2.3e-09
-2.3e-09
-2.3e-09
-2.3e-09
-2.3e-09
-2.3e-09
-2.3e-09
-2.3e-09
-2.3e-09
-2.3e-09
-2.4e-09
-2.3e-09
-2.3e-09
-2.3e-09
-2.3e-09
-2.3e-09
-2.3e-09
-2.3e-09
-2.3e-09
-2.4e-09

SCALARS	sig_22	float	1
LOOKUP_TABLE	default
-2.3e-09
-2.3e-09
-2.3e-09
-2.3e-09
-2.3e-09
-2.3e-09
-2.3e-09
-2.3e-09
-2.3e-09
-2.3e-09
-2.3e-09
-2.3e-09
-2.3e-09
-2.3e-09
-2.3e-09
-2.3e-09
-2.3e-09
-2.4e-09
-2.3e-09
-2.3e-09
-2.3e-09
-2.3e-09
-2.3e-09
-2.3e-09
-2.3e-09
-2.3e-09
-2.4e-09

SCALARS	sig_33	float	1
LOOKUP_TABLE	default
124.9911904987
124.9911904987
124.9911904987
124.9911904987
124.9911904987
124.9911904987
124.9911904987
124.9911904987
124.9911904987
124.9911904987
124.9911904987
124.9911904987
124.9911904987
124.9911904987
124.9911904987
124.9911904987
124.9911904987
124.9911904987
124.9911904987
124.9911904987
124.9911904987
124.9911904987
124.9911904987
124.9911904987
124.9911904987
124.9911904987
124.9911904987

SCALARS vonMises	float	1
LOOKUP_TABLE	default
88.3821183918
88.3821183918
88.3821183918
88.3821183918
88.3821183918
88.3821183918
88.3821183918
88.3821183918
88.3821183918
88.3821183918
88.3821183918
88.3821183918
88.3821183918
88.3821183918
88.3821183918
88.3821183918
88.3821183918
88.3821183918
88.3821183918
88.3821183918
88.3821183918
88.3821183918
88.3821183918
88.3821183918
88.3821183918
88.3821183918
88.3821183918
