# vtk DataFile Version 2.0
Results
ASCII
DATASET UNSTRUCTURED_GRID
POINTS         27           float
0.0	0.0	0.0	
50.0	0.0	0.0	
100.0	0.0	0.0	
0.0	40.0	0.0	
50.0	40.0	0.0	
100.0	40.0	0.0	
0.0	80.0	0.0	
50.0	80.0	0.0	
100.0	80.0	0.0	
0.0	0.0	70.0	
50.0	0.0	70.0	
100.0	0.0	70.0	
0.0	40.0	70.0	
50.0	40.0	70.0	
100.0	40.0	70.0	
0.0	80.0	70.0	
50.0	80.0	70.0	
100.0	80.0	70.0	
0.0	0.0	140.0	
50.0	0.0	140.0	
100.0	0.0	140.0	
0.0	40.0	140.0	
50.0	40.0	140.0	
100.0	40.0	140.0	
0.0	80.0	140.0	
50.0	80.0	140.0	
100.0	80.0	140.0	

CELLS	8	72
 8	0	1	4	3	9	10	13	12	
 8	1	2	5	4	10	11	14	13	
 8	4	5	8	7	13	14	17	16	
 8	3	4	7	6	12	13	16	15	
 8	9	10	13	12	18	19	22	21	
 8	10	11	14	13	19	20	23	22	
 8	13	14	17	16	22	23	26	25	
 8	12	13	16	15	21	22	25	24	

CELL_TYPES	8
 12
 12
 12
 12
 12
 12
 12
 12

POINT_DATA	27
SCALARS	u1	float 1
LOOKUP_TABLE	default
0.0
-0.012
-0.023
0.0
-0.012
-0.023
0.0
-0.012
-0.023
0.0
-0.012
-0.023
0.0
-0.012
-0.023
0.0
-0.012
-0.023
0.0
-0.012
-0.023
0.0
-0.012
-0.023
0.0
-0.012
-0.023

SCALARS	u2	float 1
LOOKUP_TABLE	default
0.0
0.0
0.0
-0.009
-0.009
-0.009
-0.019
-0.019
-0.019
0.0
0.0
0.0
-0.009
-0.009
-0.009
-0.019
-0.019
-0.019
0.0
0.0
0.0
-0.009
-0.009
-0.009
-0.019
-0.019
-0.019

SCALARS	u3	float 1
LOOKUP_TABLE	default
0.0
0.0
0.0
0.0
0.0
0.0
0.0
0.0
0.0
0.038
0.038
0.038
0.038
0.038
0.038
0.038
0.038
0.038
0.076
0.076
0.076
0.076
0.076
0.076
0.076
0.076
0.076

SCALARS	u4	float 1
LOOKUP_TABLE	default
299.454
299.454
299.454
299.454
299.454
299.454
299.454
299.454
299.454
299.454
299.454
299.454
299.454
299.454
299.454
299.454
299.454
299.454
299.454
299.454
299.454
299.454
299.454
299.454
299.454
299.454
299.454

VECTORS	u 	float 
0.0	0.0	0.0
-0.0116605554	0.0	0.0
-0.0233211108	0.0	0.0
0.0	-0.0093284443	0.0
-0.0116605554	-0.0093284443	0.0
-0.0233211108	-0.0093284443	0.0
0.0	-0.0186568886	0.0
-0.0116605554	-0.0186568886	0.0
-0.0233211108	-0.0186568886	0.0
0.0	0.0	0.0379048423
-0.0116605554	0.0	0.0379048423
-0.0233211108	0.0	0.0379048423
0.0	-0.0093284443	0.0379048423
-0.0116605554	-0.0093284443	0.0379048423
-0.0233211108	-0.0093284443	0.0379048423
0.0	-0.0186568886	0.0379048423
-0.0116605554	-0.0186568886	0.0379048423
-0.0233211108	-0.0186568886	0.0379048423
0.0	0.0	0.0758096846
-0.0116605554	0.0	0.0758096846
-0.0233211108	0.0	0.0758096846
0.0	-0.0093284443	0.0758096846
-0.0116605554	-0.0093284443	0.0758096846
-0.0233211108	-0.0093284443	0.0758096846
0.0	-0.0186568886	0.0758096846
-0.0116605554	-0.0186568886	0.0758096846
-0.0233211108	-0.0186568886	0.0758096846

VECTORS	v 	float 
0.0	0.0	0.0
0.02233726	0.0	0.0
0.0446745199	0.0	0.0
0.0	0.017869808	0.0
0.02233726	0.017869808	0.0
0.0446745199	0.017869808	0.0
0.0	0.0357396159	0.0
0.02233726	0.0357396159	0.0
0.0446745199	0.0357396159	0.0
0.0	-0.0	-0.0770192448
0.02233726	0.0	-0.0770192448
0.0446745199	0.0	-0.0770192448
-0.0	0.017869808	-0.0770192448
0.02233726	0.017869808	-0.0770192448
0.0446745199	0.017869808	-0.0770192448
-0.0	0.0357396159	-0.0770192448
0.02233726	0.0357396159	-0.0770192448
0.0446745199	0.0357396159	-0.0770192448
0.0	-0.0	-0.1540384896
0.02233726	0.0	-0.1540384896
0.0446745199	0.0	-0.1540384896
0.0	0.017869808	-0.1540384896
0.02233726	0.017869808	-0.1540384896
0.0446745199	0.017869808	-0.1540384896
-0.0	0.0357396159	-0.1540384896
0.02233726	0.0357396159	-0.1540384896
0.0446745199	0.0357396159	-0.1540384896

VECTORS	a 	float 
0.0	0.0	0.0
5.4970041123	0.0	0.0
10.9940082246	0.0	0.0
0.0	4.3976032898	0.0
5.4970041123	4.3976032898	0.0
10.9940082246	4.3976032898	0.0
0.0	8.7952065797	0.0
5.4970041123	8.7952065797	0.0
10.9940082246	8.7952065797	0.0
0.0	-0.0	-18.9442137764
5.4970041123	0.0	-18.9442137764
10.9940082246	-0.0	-18.9442137764
-0.0	4.3976032898	-18.9442137764
5.4970041123	4.3976032898	-18.9442137764
10.9940082246	4.3976032898	-18.9442137764
-0.0	8.7952065797	-18.9442137764
5.4970041123	8.7952065797	-18.9442137764
10.9940082246	8.7952065797	-18.9442137764
0.0	-0.0	-37.8884275527
5.4970041123	-0.0	-37.8884275527
10.9940082246	0.0	-37.8884275527
0.0	4.3976032898	-37.8884275527
5.4970041123	4.3976032898	-37.8884275527
10.9940082246	4.3976032898	-37.8884275527
0.0	8.7952065797	-37.8884275527
5.4970041123	8.7952065797	-37.8884275527
10.9940082246	8.7952065797	-37.8884275527

SCALARS	theta	float 1
LOOKUP_TABLE	default
299.454204198
299.454204198
299.454204198
299.454204198
299.454204198
299.454204198
299.454204198
299.454204198
299.454204198
299.454204198
299.454204198
299.454204198
299.454204198
299.454204198
299.454204198
299.454204198
299.454204198
299.454204198
299.454204198
299.454204198
299.454204198
299.454204198
299.454204198
299.454204198
299.454204198
299.454204198
299.454204198

SCALARS	sig_11	float	1
LOOKUP_TABLE	default
-2.3e-09
-2.3e-09
-2.3e-09
-2.3e-09
-2.3e-09
-2.3e-09
-2.3e-09
-2.3e-09
-2.3e-09
-2.3e-09
-2.3e-09
-2.3e-09
-2.3e-09
-2.3e-09
-2.3e-09
-2.3e-09
-2.3e-09
-2.3e-09
-2.3e-09
-2.3e-09
-2.3e-09
-2.3e-09
-2.3e-09
-2.3e-09
-2.3e-09
-2.3e-09
-2.3e-09

SCALARS	sig_22	float	1
LOOKUP_TABLE	default
-2.3e-09
-2.3e-09
-2.3e-09
-2.3e-09
-2.3e-09
-2.3e-09
-2.3e-09
-2.3e-09
-2.3e-09
-2.3e-09
-2.3e-09
-2.3e-09
-2.3e-09
-2.3e-09
-2.3e-09
-2.3e-09
-2.3e-09
-2.3e-09
-2.3e-09
-2.3e-09
-2.3e-09
-2.3e-09
-2.3e-09
-2.3e-09
-2.3e-09
-2.3e-09
-2.3e-09

SCALARS	sig_33	float	1
LOOKUP_TABLE	default
124.9906206082
124.9906206082
124.9906206082
124.9906206082
124.9906206082
124.9906206082
124.9906206082
124.9906206082
124.9906206082
124.9906206082
124.9906206082
124.9906206082
124.9906206082
124.9906206082
124.9906206082
124.9906206082
124.9906206082
124.9906206082
124.9906206082
124.9906206082
124.9906206082
124.9906206082
124.9906206082
124.9906206082
124.9906206082
124.9906206082
124.9906206082

SCALARS vonMises	float	1
LOOKUP_TABLE	default
88.3817154184
88.3817154184
88.3817154184
88.3817154185
88.3817154184
88.3817154184
88.3817154185
88.3817154185
88.3817154185
88.3817154184
88.3817154184
88.3817154184
88.3817154184
88.3817154184
88.3817154184
88.3817154184
88.3817154184
88.3817154184
88.3817154184
88.3817154184
88.3817154184
88.3817154184
88.3817154184
88.3817154184
88.3817154184
88.3817154184
88.3817154184
