# vtk DataFile Version 2.0
Results
ASCII
DATASET UNSTRUCTURED_GRID
POINTS         27           float
0.0	0.0	0.0	
50.0	0.0	0.0	
100.0	0.0	0.0	
0.0	40.0	0.0	
50.0	40.0	0.0	
100.0	40.0	0.0	
0.0	80.0	0.0	
50.0	80.0	0.0	
100.0	80.0	0.0	
0.0	0.0	70.0	
50.0	0.0	70.0	
100.0	0.0	70.0	
0.0	40.0	70.0	
50.0	40.0	70.0	
100.0	40.0	70.0	
0.0	80.0	70.0	
50.0	80.0	70.0	
100.0	80.0	70.0	
0.0	0.0	140.0	
50.0	0.0	140.0	
100.0	0.0	140.0	
0.0	40.0	140.0	
50.0	40.0	140.0	
100.0	40.0	140.0	
0.0	80.0	140.0	
50.0	80.0	140.0	
100.0	80.0	140.0	

CELLS	8	72
 8	0	1	4	3	9	10	13	12	
 8	1	2	5	4	10	11	14	13	
 8	4	5	8	7	13	14	17	16	
 8	3	4	7	6	12	13	16	15	
 8	9	10	13	12	18	19	22	21	
 8	10	11	14	13	19	20	23	22	
 8	13	14	17	16	22	23	26	25	
 8	12	13	16	15	21	22	25	24	

CELL_TYPES	8
 12
 12
 12
 12
 12
 12
 12
 12

POINT_DATA	27
SCALARS	u1	float 1
LOOKUP_TABLE	default
0.0
-0.012
-0.024
0.0
-0.012
-0.024
0.0
-0.012
-0.024
0.0
-0.012
-0.024
0.0
-0.012
-0.024
0.0
-0.012
-0.024
0.0
-0.012
-0.024
0.0
-0.012
-0.024
0.0
-0.012
-0.024

SCALARS	u2	float 1
LOOKUP_TABLE	default
0.0
0.0
0.0
-0.01
-0.01
-0.01
-0.019
-0.019
-0.019
0.0
0.0
0.0
-0.01
-0.01
-0.01
-0.019
-0.019
-0.019
-0.0
0.0
0.0
-0.01
-0.01
-0.01
-0.019
-0.019
-0.019

SCALARS	u3	float 1
LOOKUP_TABLE	default
0.0
0.0
0.0
0.0
0.0
0.0
0.0
0.0
0.0
0.038
0.038
0.038
0.038
0.038
0.038
0.038
0.038
0.038
0.075
0.075
0.075
0.075
0.075
0.075
0.075
0.075
0.075

SCALARS	u4	float 1
LOOKUP_TABLE	default
299.403
299.403
299.403
299.403
299.403
299.403
299.403
299.403
299.403
299.403
299.403
299.403
299.403
299.403
299.403
299.403
299.403
299.403
299.403
299.403
299.403
299.403
299.403
299.403
299.403
299.403
299.403

VECTORS	u 	float 
0.0	0.0	0.0
-0.0119190172	0.0	0.0
-0.0238380345	0.0	0.0
0.0	-0.0095352138	0.0
-0.0119190172	-0.0095352138	0.0
-0.0238380345	-0.0095352138	0.0
0.0	-0.0190704276	0.0
-0.0119190172	-0.0190704276	0.0
-0.0238380345	-0.0190704276	0.0
0.0	0.0	0.0375429963
-0.0119190172	0.0	0.0375429963
-0.0238380345	0.0	0.0375429963
0.0	-0.0095352138	0.0375429963
-0.0119190172	-0.0095352138	0.0375429963
-0.0238380345	-0.0095352138	0.0375429963
0.0	-0.0190704276	0.0375429963
-0.0119190172	-0.0190704276	0.0375429963
-0.0238380345	-0.0190704276	0.0375429963
0.0	-0.0	0.0750859925
-0.0119190172	0.0	0.0750859925
-0.0238380345	0.0	0.0750859925
0.0	-0.0095352138	0.0750859925
-0.0119190172	-0.0095352138	0.0750859925
-0.0238380345	-0.0095352138	0.0750859925
0.0	-0.0190704276	0.0750859925
-0.0119190172	-0.0190704276	0.0750859925
-0.0238380345	-0.0190704276	0.0750859925

VECTORS	v 	float 
0.0	0.0	0.0
0.0223369353	0.0	0.0
0.0446738706	0.0	0.0
0.0	0.0178695482	0.0
0.0223369353	0.0178695482	0.0
0.0446738706	0.0178695482	0.0
0.0	0.0357390965	0.0
0.0223369353	0.0357390965	0.0
0.0446738706	0.0357390965	0.0
0.0	-0.0	-0.0770197004
0.0223369353	0.0	-0.0770197004
0.0446738706	-0.0	-0.0770197004
-0.0	0.0178695482	-0.0770197004
0.0223369353	0.0178695482	-0.0770197004
0.0446738706	0.0178695482	-0.0770197004
-0.0	0.0357390965	-0.0770197004
0.0223369353	0.0357390965	-0.0770197004
0.0446738706	0.0357390965	-0.0770197004
0.0	-0.0	-0.1540394008
0.0223369353	-0.0	-0.1540394008
0.0446738706	0.0	-0.1540394008
0.0	0.0178695482	-0.1540394008
0.0223369353	0.0178695482	-0.1540394008
0.0446738706	0.0178695482	-0.1540394008
0.0	0.0357390965	-0.1540394008
0.0223369353	0.0357390965	-0.1540394008
0.0446738706	0.0357390965	-0.1540394008

VECTORS	a 	float 
0.0	0.0	0.0
8.5358829893	0.0	0.0
17.0717659786	0.0	0.0
0.0	6.8287063914	0.0
8.5358829893	6.8287063914	0.0
17.0717659786	6.8287063914	0.0
0.0	13.6574127829	0.0
8.5358829893	13.6574127829	0.0
17.0717659786	13.6574127829	0.0
0.0	-0.0	-29.4174138898
8.5358829893	0.0	-29.4174138898
17.0717659786	0.0	-29.4174138898
-0.0	6.8287063914	-29.4174138898
8.5358829893	6.8287063914	-29.4174138898
17.0717659786	6.8287063914	-29.4174138898
-0.0	13.6574127829	-29.4174138898
8.5358829893	13.6574127829	-29.4174138898
17.0717659786	13.6574127829	-29.4174138898
0.0	-0.0	-58.8348277797
8.5358829893	0.0	-58.8348277797
17.0717659786	0.0	-58.8348277797
0.0	6.8287063914	-58.8348277796
8.5358829893	6.8287063914	-58.8348277797
17.0717659786	6.8287063914	-58.8348277797
0.0	13.6574127829	-58.8348277796
8.5358829893	13.6574127829	-58.8348277796
17.0717659786	13.6574127829	-58.8348277797

SCALARS	theta	float 1
LOOKUP_TABLE	default
299.4025104767
299.4025104767
299.4025104767
299.4025104767
299.4025104767
299.4025104767
299.4025104767
299.4025104767
299.4025104767
299.4025104767
299.4025104767
299.4025104767
299.4025104767
299.4025104767
299.4025104767
299.4025104767
299.4025104767
299.4025104767
299.4025104767
299.4025104767
299.4025104767
299.4025104767
299.4025104767
299.4025104767
299.4025104767
299.4025104767
299.4025104767

SCALARS	sig_11	float	1
LOOKUP_TABLE	default
-2.4e-09
-2.4e-09
-2.4e-09
-2.4e-09
-2.4e-09
-2.4e-09
-2.4e-09
-2.4e-09
-2.4e-09
-2.4e-09
-2.4e-09
-2.4e-09
-2.4e-09
-2.4e-09
-2.4e-09
-2.4e-09
-2.4e-09
-2.4e-09
-2.3e-09
-2.4e-09
-2.4e-09
-2.4e-09
-2.4e-09
-2.4e-09
-2.4e-09
-2.4e-09
-2.4e-09

SCALARS	sig_22	float	1
LOOKUP_TABLE	default
-2.4e-09
-2.4e-09
-2.4e-09
-2.4e-09
-2.4e-09
-2.4e-09
-2.4e-09
-2.4e-09
-2.4e-09
-2.4e-09
-2.4e-09
-2.4e-09
-2.4e-09
-2.4e-09
-2.4e-09
-2.4e-09
-2.4e-09
-2.4e-09
-2.3e-09
-2.4e-09
-2.4e-09
-2.4e-09
-2.4e-09
-2.4e-09
-2.4e-09
-2.4e-09
-2.4e-09

SCALARS	sig_33	float	1
LOOKUP_TABLE	default
124.9925582056
124.9925582056
124.9925582056
124.9925582056
124.9925582056
124.9925582056
124.9925582056
124.9925582056
124.9925582056
124.9925582056
124.9925582056
124.9925582056
124.9925582056
124.9925582056
124.9925582056
124.9925582056
124.9925582056
124.9925582056
124.9925582057
124.9925582056
124.9925582056
124.9925582056
124.9925582056
124.9925582056
124.9925582056
124.9925582056
124.9925582056

SCALARS vonMises	float	1
LOOKUP_TABLE	default
88.3830855067
88.3830855067
88.3830855067
88.3830855067
88.3830855067
88.3830855067
88.3830855067
88.3830855067
88.3830855067
88.3830855067
88.3830855067
88.3830855067
88.3830855067
88.3830855067
88.3830855067
88.3830855067
88.3830855067
88.3830855067
88.3830855067
88.3830855067
88.3830855067
88.3830855067
88.3830855067
88.3830855067
88.3830855067
88.3830855067
88.3830855067
