# vtk DataFile Version 2.0
Results
ASCII
DATASET UNSTRUCTURED_GRID
POINTS         27           float
0.0	0.0	0.0	
50.0	0.0	0.0	
100.0	0.0	0.0	
0.0	40.0	0.0	
50.0	40.0	0.0	
100.0	40.0	0.0	
0.0	80.0	0.0	
50.0	80.0	0.0	
100.0	80.0	0.0	
0.0	0.0	70.0	
50.0	0.0	70.0	
100.0	0.0	70.0	
0.0	40.0	70.0	
50.0	40.0	70.0	
100.0	40.0	70.0	
0.0	80.0	70.0	
50.0	80.0	70.0	
100.0	80.0	70.0	
0.0	0.0	140.0	
50.0	0.0	140.0	
100.0	0.0	140.0	
0.0	40.0	140.0	
50.0	40.0	140.0	
100.0	40.0	140.0	
0.0	80.0	140.0	
50.0	80.0	140.0	
100.0	80.0	140.0	

CELLS	8	72
 8	0	1	4	3	9	10	13	12	
 8	1	2	5	4	10	11	14	13	
 8	4	5	8	7	13	14	17	16	
 8	3	4	7	6	12	13	16	15	
 8	9	10	13	12	18	19	22	21	
 8	10	11	14	13	19	20	23	22	
 8	13	14	17	16	22	23	26	25	
 8	12	13	16	15	21	22	25	24	

CELL_TYPES	8
 12
 12
 12
 12
 12
 12
 12
 12

POINT_DATA	27
SCALARS	u1	float 1
LOOKUP_TABLE	default
0.0
-0.011
-0.023
0.0
-0.011
-0.023
0.0
-0.011
-0.023
0.0
-0.011
-0.023
0.0
-0.011
-0.023
0.0
-0.011
-0.023
0.0
-0.011
-0.023
0.0
-0.011
-0.023
-0.0
-0.011
-0.023

SCALARS	u2	float 1
LOOKUP_TABLE	default
0.0
0.0
0.0
-0.009
-0.009
-0.009
-0.018
-0.018
-0.018
0.0
0.0
0.0
-0.009
-0.009
-0.009
-0.018
-0.018
-0.018
0.0
-0.0
-0.0
-0.009
-0.009
-0.009
-0.018
-0.018
-0.018

SCALARS	u3	float 1
LOOKUP_TABLE	default
0.0
0.0
0.0
0.0
0.0
0.0
0.0
0.0
0.0
0.038
0.038
0.038
0.038
0.038
0.038
0.038
0.038
0.038
0.077
0.077
0.077
0.077
0.077
0.077
0.077
0.077
0.077

SCALARS	u4	float 1
LOOKUP_TABLE	default
299.521
299.521
299.521
299.521
299.521
299.521
299.521
299.521
299.521
299.521
299.521
299.521
299.521
299.521
299.521
299.521
299.521
299.521
299.521
299.521
299.521
299.521
299.521
299.521
299.521
299.521
299.521

VECTORS	u 	float 
0.0	0.0	0.0
-0.0113260492	0.0	0.0
-0.0226520984	0.0	0.0
0.0	-0.0090608394	0.0
-0.0113260492	-0.0090608394	0.0
-0.0226520984	-0.0090608394	0.0
0.0	-0.0181216787	0.0
-0.0113260492	-0.0181216787	0.0
-0.0226520984	-0.0181216787	0.0
0.0	0.0	0.0383731503
-0.0113260492	0.0	0.0383731503
-0.0226520984	0.0	0.0383731503
0.0	-0.0090608394	0.0383731503
-0.0113260492	-0.0090608394	0.0383731503
-0.0226520984	-0.0090608394	0.0383731503
0.0	-0.0181216787	0.0383731503
-0.0113260492	-0.0181216787	0.0383731503
-0.0226520984	-0.0181216787	0.0383731503
0.0	0.0	0.0767463005
-0.0113260492	-0.0	0.0767463005
-0.0226520984	-0.0	0.0767463005
0.0	-0.0090608394	0.0767463005
-0.0113260492	-0.0090608394	0.0767463005
-0.0226520984	-0.0090608394	0.0767463005
-0.0	-0.0181216787	0.0767463005
-0.0113260492	-0.0181216787	0.0767463005
-0.0226520984	-0.0181216787	0.0767463005

VECTORS	v 	float 
0.0	0.0	0.0
0.0223376801	0.0	0.0
0.0446753601	0.0	0.0
0.0	0.017870144	0.0
0.0223376801	0.017870144	0.0
0.0446753601	0.017870144	0.0
0.0	0.0357402881	0.0
0.0223376801	0.0357402881	0.0
0.0446753601	0.0357402881	0.0
0.0	0.0	-0.0770186552
0.0223376801	0.0	-0.0770186552
0.0446753601	-0.0	-0.0770186552
-0.0	0.017870144	-0.0770186552
0.0223376801	0.017870144	-0.0770186552
0.0446753601	0.017870144	-0.0770186552
-0.0	0.0357402881	-0.0770186552
0.0223376801	0.0357402881	-0.0770186552
0.0446753601	0.0357402881	-0.0770186552
-0.0	-0.0	-0.1540373104
0.0223376801	-0.0	-0.1540373104
0.0446753601	0.0	-0.1540373104
-0.0	0.017870144	-0.1540373104
0.0223376801	0.017870144	-0.1540373104
0.0446753601	0.017870144	-0.1540373104
-0.0	0.0357402881	-0.1540373104
0.0223376801	0.0357402881	-0.1540373104
0.0446753601	0.0357402881	-0.1540373104

VECTORS	a 	float 
0.0	0.0	0.0
1.5642716903	0.0	0.0
3.1285433807	0.0	0.0
0.0	1.2514173523	0.0
1.5642716903	1.2514173523	0.0
3.1285433807	1.2514173523	0.0
0.0	2.5028347045	0.0
1.5642716903	2.5028347045	0.0
3.1285433807	2.5028347045	0.0
0.0	-0.0	-5.3907528069
1.5642716903	0.0	-5.3907528069
3.1285433807	-0.0	-5.3907528069
0.0	1.2514173523	-5.3907528069
1.5642716903	1.2514173523	-5.3907528069
3.1285433807	1.2514173523	-5.3907528069
0.0	2.5028347045	-5.3907528069
1.5642716903	2.5028347045	-5.3907528069
3.1285433807	2.5028347045	-5.3907528069
0.0	-0.0	-10.7815056137
1.5642716903	-0.0	-10.7815056137
3.1285433807	0.0	-10.7815056137
0.0	1.2514173523	-10.7815056137
1.5642716903	1.2514173523	-10.7815056137
3.1285433807	1.2514173523	-10.7815056137
0.0	2.5028347045	-10.7815056137
1.5642716903	2.5028347045	-10.7815056137
3.1285433807	2.5028347045	-10.7815056137

SCALARS	theta	float 1
LOOKUP_TABLE	default
299.5211062312
299.5211062312
299.5211062312
299.5211062312
299.5211062312
299.5211062312
299.5211062312
299.5211062312
299.5211062312
299.5211062312
299.5211062312
299.5211062312
299.5211062312
299.5211062312
299.5211062312
299.5211062312
299.5211062312
299.5211062312
299.5211062312
299.5211062312
299.5211062312
299.5211062312
299.5211062312
299.5211062312
299.5211062312
299.5211062312
299.5211062312

SCALARS	sig_11	float	1
LOOKUP_TABLE	default
-2.4e-09
-2.3e-09
-2.3e-09
-2.4e-09
-2.4e-09
-2.3e-09
-2.3e-09
-2.4e-09
-2.4e-09
-2.3e-09
-2.3e-09
-2.3e-09
-2.3e-09
-2.3e-09
-2.3e-09
-2.3e-09
-2.3e-09
-2.4e-09
-2.3e-09
-2.3e-09
-2.3e-09
-2.3e-09
-2.3e-09
-2.3e-09
-2.3e-09
-2.3e-09
-2.4e-09

SCALARS	sig_22	float	1
LOOKUP_TABLE	default
-2.4e-09
-2.3e-09
-2.3e-09
-2.4e-09
-2.4e-09
-2.3e-09
-2.3e-09
-2.4e-09
-2.4e-09
-2.3e-09
-2.3e-09
-2.3e-09
-2.3e-09
-2.3e-09
-2.3e-09
-2.3e-09
-2.3e-09
-2.4e-09
-2.3e-09
-2.3e-09
-2.3e-09
-2.3e-09
-2.3e-09
-2.3e-09
-2.3e-09
-2.3e-09
-2.4e-09

SCALARS	sig_33	float	1
LOOKUP_TABLE	default
124.9881130028
124.9881130028
124.9881130028
124.9881130028
124.9881130028
124.9881130028
124.9881130028
124.9881130028
124.9881130028
124.9881130028
124.9881130028
124.9881130028
124.9881130028
124.9881130028
124.9881130028
124.9881130028
124.9881130028
124.9881130028
124.9881130028
124.9881130028
124.9881130028
124.9881130028
124.9881130028
124.9881130028
124.9881130028
124.9881130028
124.9881130028

SCALARS vonMises	float	1
LOOKUP_TABLE	default
88.3799422736
88.3799422736
88.3799422736
88.3799422736
88.3799422736
88.3799422736
88.3799422736
88.3799422736
88.3799422736
88.3799422736
88.3799422736
88.3799422736
88.3799422736
88.3799422736
88.3799422736
88.3799422736
88.3799422736
88.3799422736
88.3799422736
88.3799422736
88.3799422736
88.3799422736
88.3799422736
88.3799422736
88.3799422736
88.3799422736
88.3799422736
