# vtk DataFile Version 2.0
Results
ASCII
DATASET UNSTRUCTURED_GRID
POINTS         27           float
0.0	0.0	0.0	
50.0	0.0	0.0	
100.0	0.0	0.0	
0.0	40.0	0.0	
50.0	40.0	0.0	
100.0	40.0	0.0	
0.0	80.0	0.0	
50.0	80.0	0.0	
100.0	80.0	0.0	
0.0	0.0	70.0	
50.0	0.0	70.0	
100.0	0.0	70.0	
0.0	40.0	70.0	
50.0	40.0	70.0	
100.0	40.0	70.0	
0.0	80.0	70.0	
50.0	80.0	70.0	
100.0	80.0	70.0	
0.0	0.0	140.0	
50.0	0.0	140.0	
100.0	0.0	140.0	
0.0	40.0	140.0	
50.0	40.0	140.0	
100.0	40.0	140.0	
0.0	80.0	140.0	
50.0	80.0	140.0	
100.0	80.0	140.0	

CELLS	8	72
 8	0	1	4	3	9	10	13	12	
 8	1	2	5	4	10	11	14	13	
 8	4	5	8	7	13	14	17	16	
 8	3	4	7	6	12	13	16	15	
 8	9	10	13	12	18	19	22	21	
 8	10	11	14	13	19	20	23	22	
 8	13	14	17	16	22	23	26	25	
 8	12	13	16	15	21	22	25	24	

CELL_TYPES	8
 12
 12
 12
 12
 12
 12
 12
 12

POINT_DATA	27
SCALARS	u1	float 1
LOOKUP_TABLE	default
0.0
-0.012
-0.023
0.0
-0.012
-0.023
0.0
-0.012
-0.023
0.0
-0.012
-0.023
0.0
-0.012
-0.023
0.0
-0.012
-0.023
0.0
-0.012
-0.023
0.0
-0.012
-0.023
0.0
-0.012
-0.023

SCALARS	u2	float 1
LOOKUP_TABLE	default
0.0
0.0
0.0
-0.009
-0.009
-0.009
-0.019
-0.019
-0.019
-0.0
-0.0
0.0
-0.009
-0.009
-0.009
-0.019
-0.019
-0.019
-0.0
-0.0
-0.0
-0.009
-0.009
-0.009
-0.019
-0.019
-0.019

SCALARS	u3	float 1
LOOKUP_TABLE	default
0.0
0.0
0.0
0.0
0.0
0.0
0.0
0.0
0.0
0.038
0.038
0.038
0.038
0.038
0.038
0.038
0.038
0.038
0.076
0.076
0.076
0.076
0.076
0.076
0.076
0.076
0.076

SCALARS	u4	float 1
LOOKUP_TABLE	default
299.468
299.468
299.468
299.468
299.468
299.468
299.468
299.468
299.468
299.468
299.468
299.468
299.468
299.468
299.468
299.468
299.468
299.468
299.468
299.468
299.468
299.468
299.468
299.468
299.468
299.468
299.468

VECTORS	u 	float 
0.0	0.0	0.0
-0.011592131	0.0	0.0
-0.023184262	0.0	0.0
0.0	-0.0092737048	0.0
-0.011592131	-0.0092737048	0.0
-0.023184262	-0.0092737048	0.0
0.0	-0.0185474096	0.0
-0.011592131	-0.0185474096	0.0
-0.023184262	-0.0185474096	0.0
0.0	-0.0	0.0380006363
-0.011592131	-0.0	0.0380006363
-0.023184262	0.0	0.0380006363
0.0	-0.0092737048	0.0380006363
-0.011592131	-0.0092737048	0.0380006363
-0.023184262	-0.0092737048	0.0380006363
0.0	-0.0185474096	0.0380006363
-0.011592131	-0.0185474096	0.0380006363
-0.023184262	-0.0185474096	0.0380006363
0.0	-0.0	0.0760012727
-0.011592131	-0.0	0.0760012727
-0.023184262	-0.0	0.0760012727
0.0	-0.0092737048	0.0760012727
-0.011592131	-0.0092737048	0.0760012727
-0.023184262	-0.0092737048	0.0760012727
0.0	-0.0185474096	0.0760012727
-0.011592131	-0.0185474096	0.0760012727
-0.023184262	-0.0185474096	0.0760012727

VECTORS	v 	float 
0.0	0.0	0.0
-0.0223525466	0.0	0.0
-0.0447050933	0.0	0.0
0.0	-0.0178820373	0.0
-0.0223525466	-0.0178820373	0.0
-0.0447050933	-0.0178820373	0.0
0.0	-0.0357640746	0.0
-0.0223525466	-0.0357640746	0.0
-0.0447050933	-0.0357640746	0.0
-0.0	0.0	0.0769978267
-0.0223525466	-0.0	0.0769978267
-0.0447050933	-0.0	0.0769978267
0.0	-0.0178820373	0.0769978267
-0.0223525466	-0.0178820373	0.0769978267
-0.0447050933	-0.0178820373	0.0769978267
0.0	-0.0357640746	0.0769978267
-0.0223525466	-0.0357640746	0.0769978267
-0.0447050933	-0.0357640746	0.0769978267
-0.0	0.0	0.1539956533
-0.0223525466	0.0	0.1539956533
-0.0447050933	-0.0	0.1539956533
-0.0	-0.0178820373	0.1539956533
-0.0223525466	-0.0178820373	0.1539956533
-0.0447050933	-0.0178820373	0.1539956533
-0.0	-0.0357640746	0.1539956533
-0.0223525466	-0.0357640746	0.1539956533
-0.0447050933	-0.0357640746	0.1539956533

VECTORS	a 	float 
0.0	0.0	0.0
-4.6925875957	0.0	0.0
-9.3851751914	0.0	0.0
0.0	-3.7540700766	0.0
-4.6925875957	-3.7540700766	0.0
-9.3851751914	-3.7540700766	0.0
0.0	-7.5081401531	0.0
-4.6925875957	-7.5081401531	0.0
-9.3851751914	-7.5081401531	0.0
-0.0	0.0	16.1719064873
-4.6925875957	-0.0	16.1719064873
-9.3851751914	0.0	16.1719064873
0.0	-3.7540700766	16.1719064873
-4.6925875957	-3.7540700766	16.1719064873
-9.3851751914	-3.7540700766	16.1719064873
0.0	-7.5081401531	16.1719064873
-4.6925875957	-7.5081401531	16.1719064873
-9.3851751914	-7.5081401531	16.1719064873
-0.0	0.0	32.3438129746
-4.6925875957	0.0	32.3438129746
-9.3851751914	-0.0	32.3438129746
-0.0	-3.7540700766	32.3438129746
-4.6925875957	-3.7540700766	32.3438129746
-9.3851751914	-3.7540700766	32.3438129746
-0.0	-7.5081401531	32.3438129746
-4.6925875957	-7.5081401531	32.3438129746
-9.3851751914	-7.5081401531	32.3438129746

SCALARS	theta	float 1
LOOKUP_TABLE	default
299.4678893282
299.4678893282
299.4678893282
299.4678893282
299.4678893282
299.4678893282
299.4678893282
299.4678893282
299.4678893282
299.4678893282
299.4678893282
299.4678893282
299.4678893282
299.4678893282
299.4678893282
299.4678893282
299.4678893282
299.4678893282
299.4678893282
299.4678893282
299.4678893282
299.4678893282
299.4678893282
299.4678893282
299.4678893282
299.4678893282
299.4678893282

SCALARS	sig_11	float	1
LOOKUP_TABLE	default
-2.4e-09
-2.4e-09
-2.3e-09
-2.4e-09
-2.4e-09
-2.3e-09
-2.4e-09
-2.4e-09
-2.3e-09
-2.4e-09
-2.4e-09
-2.4e-09
-2.4e-09
-2.4e-09
-2.3e-09
-2.4e-09
-2.4e-09
-2.3e-09
-2.4e-09
-2.4e-09
-2.4e-09
-2.3e-09
-2.4e-09
-2.4e-09
-2.4e-09
-2.4e-09
-2.4e-09

SCALARS	sig_22	float	1
LOOKUP_TABLE	default
-2.4e-09
-2.4e-09
-2.3e-09
-2.4e-09
-2.4e-09
-2.3e-09
-2.4e-09
-2.4e-09
-2.3e-09
-2.4e-09
-2.4e-09
-2.4e-09
-2.4e-09
-2.4e-09
-2.3e-09
-2.4e-09
-2.4e-09
-2.3e-09
-2.4e-09
-2.4e-09
-2.4e-09
-2.3e-09
-2.4e-09
-2.4e-09
-2.4e-09
-2.4e-09
-2.4e-09

SCALARS	sig_33	float	1
LOOKUP_TABLE	default
124.9901077386
124.9901077386
124.9901077386
124.9901077386
124.9901077386
124.9901077386
124.9901077386
124.9901077386
124.9901077386
124.9901077386
124.9901077386
124.9901077386
124.9901077386
124.9901077386
124.9901077386
124.9901077386
124.9901077386
124.9901077386
124.9901077386
124.9901077386
124.9901077386
124.9901077386
124.9901077386
124.9901077386
124.9901077386
124.9901077386
124.9901077386

SCALARS vonMises	float	1
LOOKUP_TABLE	default
88.3813527649
88.3813527649
88.3813527649
88.3813527649
88.3813527649
88.3813527649
88.3813527649
88.3813527649
88.3813527649
88.3813527649
88.3813527649
88.3813527649
88.3813527649
88.3813527649
88.3813527649
88.3813527649
88.3813527649
88.3813527649
88.3813527649
88.3813527649
88.3813527649
88.3813527649
88.3813527649
88.3813527649
88.3813527649
88.3813527649
88.3813527649
