# vtk DataFile Version 2.0
Results
ASCII
DATASET UNSTRUCTURED_GRID
POINTS         27           float
0.0	0.0	0.0	
50.0	0.0	0.0	
100.0	0.0	0.0	
0.0	40.0	0.0	
50.0	40.0	0.0	
100.0	40.0	0.0	
0.0	80.0	0.0	
50.0	80.0	0.0	
100.0	80.0	0.0	
0.0	0.0	70.0	
50.0	0.0	70.0	
100.0	0.0	70.0	
0.0	40.0	70.0	
50.0	40.0	70.0	
100.0	40.0	70.0	
0.0	80.0	70.0	
50.0	80.0	70.0	
100.0	80.0	70.0	
0.0	0.0	140.0	
50.0	0.0	140.0	
100.0	0.0	140.0	
0.0	40.0	140.0	
50.0	40.0	140.0	
100.0	40.0	140.0	
0.0	80.0	140.0	
50.0	80.0	140.0	
100.0	80.0	140.0	

CELLS	8	72
 8	0	1	4	3	9	10	13	12	
 8	1	2	5	4	10	11	14	13	
 8	4	5	8	7	13	14	17	16	
 8	3	4	7	6	12	13	16	15	
 8	9	10	13	12	18	19	22	21	
 8	10	11	14	13	19	20	23	22	
 8	13	14	17	16	22	23	26	25	
 8	12	13	16	15	21	22	25	24	

CELL_TYPES	8
 12
 12
 12
 12
 12
 12
 12
 12

POINT_DATA	27
SCALARS	u1	float 1
LOOKUP_TABLE	default
0.0
-0.012
-0.023
0.0
-0.012
-0.023
0.0
-0.012
-0.023
0.0
-0.012
-0.023
0.0
-0.012
-0.023
0.0
-0.012
-0.023
0.0
-0.012
-0.023
0.0
-0.012
-0.023
0.0
-0.012
-0.023

SCALARS	u2	float 1
LOOKUP_TABLE	default
0.0
0.0
0.0
-0.009
-0.009
-0.009
-0.019
-0.019
-0.019
0.0
0.0
0.0
-0.009
-0.009
-0.009
-0.019
-0.019
-0.019
0.0
0.0
0.0
-0.009
-0.009
-0.009
-0.019
-0.019
-0.019

SCALARS	u3	float 1
LOOKUP_TABLE	default
0.0
0.0
0.0
0.0
0.0
0.0
0.0
0.0
0.0
0.038
0.038
0.038
0.038
0.038
0.038
0.038
0.038
0.038
0.076
0.076
0.076
0.076
0.076
0.076
0.076
0.076
0.076

SCALARS	u4	float 1
LOOKUP_TABLE	default
299.451
299.451
299.451
299.451
299.451
299.451
299.451
299.451
299.451
299.451
299.451
299.451
299.451
299.451
299.451
299.451
299.451
299.451
299.451
299.451
299.451
299.451
299.451
299.451
299.451
299.451
299.451

VECTORS	u 	float 
0.0	0.0	0.0
-0.0116757595	0.0	0.0
-0.023351519	0.0	0.0
0.0	-0.0093406076	0.0
-0.0116757595	-0.0093406076	0.0
-0.023351519	-0.0093406076	0.0
0.0	-0.0186812152	0.0
-0.0116757595	-0.0186812152	0.0
-0.023351519	-0.0186812152	0.0
0.0	0.0	0.0378835566
-0.0116757595	0.0	0.0378835566
-0.023351519	0.0	0.0378835566
0.0	-0.0093406076	0.0378835566
-0.0116757595	-0.0093406076	0.0378835566
-0.023351519	-0.0093406076	0.0378835566
0.0	-0.0186812152	0.0378835566
-0.0116757595	-0.0186812152	0.0378835566
-0.023351519	-0.0186812152	0.0378835566
0.0	0.0	0.0757671132
-0.0116757595	0.0	0.0757671132
-0.023351519	0.0	0.0757671132
0.0	-0.0093406076	0.0757671132
-0.0116757595	-0.0093406076	0.0757671132
-0.023351519	-0.0093406076	0.0757671132
0.0	-0.0186812152	0.0757671132
-0.0116757595	-0.0186812152	0.0757671132
-0.023351519	-0.0186812152	0.0757671132

VECTORS	v 	float 
0.0	0.0	0.0
0.0223372409	0.0	0.0
0.0446744817	0.0	0.0
0.0	0.0178697927	0.0
0.0223372409	0.0178697927	0.0
0.0446744817	0.0178697927	0.0
0.0	0.0357395854	0.0
0.0223372409	0.0357395854	0.0
0.0446744817	0.0357395854	0.0
0.0	0.0	-0.0770192716
0.0223372409	0.0	-0.0770192716
0.0446744817	0.0	-0.0770192716
-0.0	0.0178697927	-0.0770192716
0.0223372409	0.0178697927	-0.0770192716
0.0446744817	0.0178697927	-0.0770192716
-0.0	0.0357395854	-0.0770192716
0.0223372409	0.0357395854	-0.0770192716
0.0446744817	0.0357395854	-0.0770192716
0.0	-0.0	-0.1540385432
0.0223372409	0.0	-0.1540385432
0.0446744817	0.0	-0.1540385432
-0.0	0.0178697927	-0.1540385432
0.0223372409	0.0178697927	-0.1540385432
0.0446744817	0.0178697927	-0.1540385432
-0.0	0.0357395854	-0.1540385432
0.0223372409	0.0357395854	-0.1540385432
0.0446744817	0.0357395854	-0.1540385432

VECTORS	a 	float 
0.0	0.0	0.0
5.6757629174	0.0	0.0
11.3515258349	0.0	0.0
0.0	4.540610334	0.0
5.6757629174	4.540610334	0.0
11.3515258349	4.540610334	0.0
0.0	9.0812206679	0.0
5.6757629174	9.0812206679	0.0
11.3515258349	9.0812206679	0.0
0.0	-0.0	-19.5602826533
5.6757629174	0.0	-19.5602826533
11.3515258349	-0.0	-19.5602826533
-0.0	4.540610334	-19.5602826533
5.6757629174	4.540610334	-19.5602826533
11.3515258349	4.540610334	-19.5602826533
-0.0	9.0812206679	-19.5602826533
5.6757629174	9.0812206679	-19.5602826533
11.3515258349	9.0812206679	-19.5602826533
0.0	-0.0	-39.1205653067
5.6757629174	-0.0	-39.1205653067
11.3515258349	0.0	-39.1205653067
0.0	4.5406103339	-39.1205653067
5.6757629174	4.540610334	-39.1205653067
11.3515258349	4.540610334	-39.1205653067
0.0	9.0812206679	-39.1205653067
5.6757629174	9.0812206679	-39.1205653067
11.3515258349	9.0812206679	-39.1205653067

SCALARS	theta	float 1
LOOKUP_TABLE	default
299.4511633111
299.4511633111
299.4511633111
299.4511633111
299.4511633111
299.4511633111
299.4511633111
299.4511633111
299.4511633111
299.4511633111
299.4511633111
299.4511633111
299.4511633111
299.4511633111
299.4511633111
299.4511633111
299.4511633111
299.4511633111
299.4511633111
299.4511633111
299.4511633111
299.4511633111
299.4511633111
299.4511633111
299.4511633111
299.4511633111
299.4511633111

SCALARS	sig_11	float	1
LOOKUP_TABLE	default
-2.3e-09
-2.3e-09
-2.3e-09
-2.3e-09
-2.3e-09
-2.3e-09
-2.3e-09
-2.3e-09
-2.3e-09
-2.3e-09
-2.3e-09
-2.3e-09
-2.3e-09
-2.3e-09
-2.3e-09
-2.3e-09
-2.3e-09
-2.3e-09
-2.3e-09
-2.3e-09
-2.3e-09
-2.3e-09
-2.3e-09
-2.3e-09
-2.3e-09
-2.3e-09
-2.3e-09

SCALARS	sig_22	float	1
LOOKUP_TABLE	default
-2.3e-09
-2.3e-09
-2.3e-09
-2.3e-09
-2.3e-09
-2.3e-09
-2.3e-09
-2.3e-09
-2.3e-09
-2.3e-09
-2.3e-09
-2.3e-09
-2.3e-09
-2.3e-09
-2.3e-09
-2.3e-09
-2.3e-09
-2.3e-09
-2.3e-09
-2.3e-09
-2.3e-09
-2.3e-09
-2.3e-09
-2.3e-09
-2.3e-09
-2.3e-09
-2.3e-09

SCALARS	sig_33	float	1
LOOKUP_TABLE	default
124.9907345869
124.9907345869
124.9907345869
124.9907345869
124.9907345869
124.9907345869
124.9907345869
124.9907345869
124.9907345869
124.9907345869
124.9907345869
124.9907345869
124.9907345869
124.9907345869
124.9907345869
124.9907345869
124.9907345869
124.9907345869
124.9907345869
124.9907345869
124.9907345869
124.9907345869
124.9907345869
124.9907345869
124.9907345869
124.9907345869
124.9907345869

SCALARS vonMises	float	1
LOOKUP_TABLE	default
88.3817960135
88.3817960135
88.3817960135
88.3817960135
88.3817960135
88.3817960135
88.3817960135
88.3817960135
88.3817960135
88.3817960135
88.3817960135
88.3817960135
88.3817960135
88.3817960135
88.3817960135
88.3817960135
88.3817960135
88.3817960135
88.3817960135
88.3817960135
88.3817960135
88.3817960135
88.3817960135
88.3817960135
88.3817960135
88.3817960135
88.3817960135
