# vtk DataFile Version 2.0
Results
ASCII
DATASET UNSTRUCTURED_GRID
POINTS         27           float
0.0	0.0	0.0	
50.0	0.0	0.0	
100.0	0.0	0.0	
0.0	40.0	0.0	
50.0	40.0	0.0	
100.0	40.0	0.0	
0.0	80.0	0.0	
50.0	80.0	0.0	
100.0	80.0	0.0	
0.0	0.0	70.0	
50.0	0.0	70.0	
100.0	0.0	70.0	
0.0	40.0	70.0	
50.0	40.0	70.0	
100.0	40.0	70.0	
0.0	80.0	70.0	
50.0	80.0	70.0	
100.0	80.0	70.0	
0.0	0.0	140.0	
50.0	0.0	140.0	
100.0	0.0	140.0	
0.0	40.0	140.0	
50.0	40.0	140.0	
100.0	40.0	140.0	
0.0	80.0	140.0	
50.0	80.0	140.0	
100.0	80.0	140.0	

CELLS	8	72
 8	0	1	4	3	9	10	13	12	
 8	1	2	5	4	10	11	14	13	
 8	4	5	8	7	13	14	17	16	
 8	3	4	7	6	12	13	16	15	
 8	9	10	13	12	18	19	22	21	
 8	10	11	14	13	19	20	23	22	
 8	13	14	17	16	22	23	26	25	
 8	12	13	16	15	21	22	25	24	

CELL_TYPES	8
 12
 12
 12
 12
 12
 12
 12
 12

POINT_DATA	27
SCALARS	u1	float 1
LOOKUP_TABLE	default
0.0
-0.011
-0.023
0.0
-0.011
-0.023
0.0
-0.011
-0.023
0.0
-0.011
-0.023
0.0
-0.011
-0.023
-0.0
-0.011
-0.023
-0.0
-0.011
-0.023
-0.0
-0.011
-0.023
-0.0
-0.011
-0.023

SCALARS	u2	float 1
LOOKUP_TABLE	default
0.0
0.0
0.0
-0.009
-0.009
-0.009
-0.018
-0.018
-0.018
0.0
-0.0
-0.0
-0.009
-0.009
-0.009
-0.018
-0.018
-0.018
0.0
0.0
0.0
-0.009
-0.009
-0.009
-0.018
-0.018
-0.018

SCALARS	u3	float 1
LOOKUP_TABLE	default
0.0
0.0
0.0
0.0
0.0
0.0
0.0
0.0
0.0
0.038
0.038
0.038
0.038
0.038
0.038
0.038
0.038
0.038
0.077
0.077
0.077
0.077
0.077
0.077
0.077
0.077
0.077

SCALARS	u4	float 1
LOOKUP_TABLE	default
299.535
299.535
299.535
299.535
299.535
299.535
299.535
299.535
299.535
299.535
299.535
299.535
299.535
299.535
299.535
299.535
299.535
299.535
299.535
299.535
299.535
299.535
299.535
299.535
299.535
299.535
299.535

VECTORS	u 	float 
0.0	0.0	0.0
-0.0112576188	0.0	0.0
-0.0225152376	0.0	0.0
0.0	-0.009006095	0.0
-0.0112576188	-0.009006095	0.0
-0.0225152376	-0.009006095	0.0
0.0	-0.0180121901	0.0
-0.0112576188	-0.0180121901	0.0
-0.0225152376	-0.0180121901	0.0
0.0	0.0	0.0384689527
-0.0112576188	-0.0	0.0384689527
-0.0225152376	-0.0	0.0384689527
0.0	-0.009006095	0.0384689527
-0.0112576188	-0.009006095	0.0384689527
-0.0225152376	-0.009006095	0.0384689527
-0.0	-0.0180121901	0.0384689527
-0.0112576188	-0.0180121901	0.0384689527
-0.0225152376	-0.0180121901	0.0384689527
-0.0	0.0	0.0769379054
-0.0112576188	0.0	0.0769379054
-0.0225152376	0.0	0.0769379054
-0.0	-0.009006095	0.0769379054
-0.0112576188	-0.009006095	0.0769379054
-0.0225152376	-0.009006095	0.0769379054
-0.0	-0.0180121901	0.0769379054
-0.0112576188	-0.0180121901	0.0769379054
-0.0225152376	-0.0180121901	0.0769379054

VECTORS	v 	float 
0.0	0.0	0.0
-0.022352968	0.0	0.0
-0.044705936	0.0	0.0
0.0	-0.0178823744	0.0
-0.022352968	-0.0178823744	0.0
-0.044705936	-0.0178823744	0.0
0.0	-0.0357647488	0.0
-0.022352968	-0.0357647488	0.0
-0.044705936	-0.0357647488	0.0
-0.0	0.0	0.0769972353
-0.022352968	-0.0	0.0769972353
-0.044705936	-0.0	0.0769972353
-0.0	-0.0178823744	0.0769972353
-0.022352968	-0.0178823744	0.0769972353
-0.044705936	-0.0178823744	0.0769972353
-0.0	-0.0357647488	0.0769972353
-0.022352968	-0.0357647488	0.0769972353
-0.044705936	-0.0357647488	0.0769972353
-0.0	0.0	0.1539944706
-0.022352968	0.0	0.1539944706
-0.044705936	-0.0	0.1539944706
-0.0	-0.0178823744	0.1539944706
-0.022352968	-0.0178823744	0.1539944706
-0.044705936	-0.0178823744	0.1539944706
-0.0	-0.0357647488	0.1539944706
-0.022352968	-0.0357647488	0.1539944706
-0.044705936	-0.0357647488	0.1539944706

VECTORS	a 	float 
0.0	0.0	0.0
-0.7598400275	0.0	0.0
-1.5196800551	0.0	0.0
0.0	-0.607872022	0.0
-0.7598400275	-0.607872022	0.0
-1.5196800551	-0.607872022	0.0
0.0	-1.215744044	0.0
-0.7598400275	-1.215744044	0.0
-1.5196800551	-1.215744044	0.0
-0.0	0.0	2.6184667738
-0.7598400275	-0.0	2.6184667738
-1.5196800551	-0.0	2.6184667738
-0.0	-0.607872022	2.6184667738
-0.7598400275	-0.607872022	2.6184667738
-1.5196800551	-0.607872022	2.6184667738
-0.0	-1.215744044	2.6184667738
-0.7598400275	-1.215744044	2.6184667738
-1.5196800551	-1.215744044	2.6184667738
-0.0	0.0	5.2369335477
-0.7598400275	-0.0	5.2369335477
-1.5196800551	-0.0	5.2369335477
-0.0	-0.607872022	5.2369335477
-0.7598400275	-0.607872022	5.2369335477
-1.5196800551	-0.607872022	5.2369335477
-0.0	-1.215744044	5.2369335477
-0.7598400275	-1.215744044	5.2369335477
-1.5196800551	-1.215744044	5.2369335477

SCALARS	theta	float 1
LOOKUP_TABLE	default
299.5347923479
299.5347923479
299.5347923479
299.5347923479
299.5347923479
299.5347923479
299.5347923479
299.5347923479
299.5347923479
299.5347923479
299.5347923479
299.5347923479
299.5347923479
299.5347923479
299.5347923479
299.5347923479
299.5347923479
299.5347923479
299.5347923479
299.5347923479
299.5347923479
299.5347923479
299.5347923479
299.5347923479
299.5347923479
299.5347923479
299.5347923479

SCALARS	sig_11	float	1
LOOKUP_TABLE	default
-2.3e-09
-2.3e-09
-2.3e-09
-2.3e-09
-2.3e-09
-2.3e-09
-2.3e-09
-2.3e-09
-2.3e-09
-2.3e-09
-2.3e-09
-2.3e-09
-2.3e-09
-2.3e-09
-2.3e-09
-2.3e-09
-2.3e-09
-2.3e-09
-2.3e-09
-2.3e-09
-2.3e-09
-2.3e-09
-2.3e-09
-2.3e-09
-2.3e-09
-2.3e-09
-2.3e-09

SCALARS	sig_22	float	1
LOOKUP_TABLE	default
-2.3e-09
-2.3e-09
-2.3e-09
-2.3e-09
-2.3e-09
-2.3e-09
-2.3e-09
-2.3e-09
-2.3e-09
-2.3e-09
-2.3e-09
-2.3e-09
-2.3e-09
-2.3e-09
-2.3e-09
-2.3e-09
-2.3e-09
-2.3e-09
-2.3e-09
-2.3e-09
-2.3e-09
-2.3e-09
-2.3e-09
-2.3e-09
-2.3e-09
-2.3e-09
-2.3e-09

SCALARS	sig_33	float	1
LOOKUP_TABLE	default
124.987600104
124.987600104
124.987600104
124.987600104
124.987600104
124.987600104
124.987600104
124.987600104
124.987600104
124.987600104
124.987600104
124.987600104
124.987600104
124.987600104
124.987600104
124.987600104
124.987600104
124.987600104
124.987600104
124.987600104
124.987600104
124.987600104
124.987600104
124.987600104
124.987600104
124.987600104
124.987600104

SCALARS vonMises	float	1
LOOKUP_TABLE	default
88.3795795994
88.3795795994
88.3795795994
88.3795795994
88.3795795994
88.3795795994
88.3795795994
88.3795795994
88.3795795994
88.3795795994
88.3795795994
88.3795795994
88.3795795994
88.3795795994
88.3795795994
88.3795795994
88.3795795994
88.3795795994
88.3795795994
88.3795795994
88.3795795994
88.3795795994
88.3795795994
88.3795795994
88.3795795994
88.3795795994
88.3795795994
