# vtk DataFile Version 2.0
Results
ASCII
DATASET UNSTRUCTURED_GRID
POINTS         27           float
0.0	0.0	0.0	
50.0	0.0	0.0	
100.0	0.0	0.0	
0.0	40.0	0.0	
50.0	40.0	0.0	
100.0	40.0	0.0	
0.0	80.0	0.0	
50.0	80.0	0.0	
100.0	80.0	0.0	
0.0	0.0	70.0	
50.0	0.0	70.0	
100.0	0.0	70.0	
0.0	40.0	70.0	
50.0	40.0	70.0	
100.0	40.0	70.0	
0.0	80.0	70.0	
50.0	80.0	70.0	
100.0	80.0	70.0	
0.0	0.0	140.0	
50.0	0.0	140.0	
100.0	0.0	140.0	
0.0	40.0	140.0	
50.0	40.0	140.0	
100.0	40.0	140.0	
0.0	80.0	140.0	
50.0	80.0	140.0	
100.0	80.0	140.0	

CELLS	8	72
 8	0	1	4	3	9	10	13	12	
 8	1	2	5	4	10	11	14	13	
 8	4	5	8	7	13	14	17	16	
 8	3	4	7	6	12	13	16	15	
 8	9	10	13	12	18	19	22	21	
 8	10	11	14	13	19	20	23	22	
 8	13	14	17	16	22	23	26	25	
 8	12	13	16	15	21	22	25	24	

CELL_TYPES	8
 12
 12
 12
 12
 12
 12
 12
 12

POINT_DATA	27
SCALARS	u1	float 1
LOOKUP_TABLE	default
0.0
-0.012
-0.023
0.0
-0.012
-0.023
0.0
-0.012
-0.023
-0.0
-0.012
-0.023
-0.0
-0.012
-0.023
-0.0
-0.012
-0.023
-0.0
-0.012
-0.023
0.0
-0.012
-0.023
-0.0
-0.012
-0.023

SCALARS	u2	float 1
LOOKUP_TABLE	default
0.0
0.0
0.0
-0.009
-0.009
-0.009
-0.019
-0.019
-0.019
0.0
0.0
0.0
-0.009
-0.009
-0.009
-0.019
-0.019
-0.019
0.0
0.0
0.0
-0.009
-0.009
-0.009
-0.019
-0.019
-0.019

SCALARS	u3	float 1
LOOKUP_TABLE	default
0.0
0.0
0.0
0.0
0.0
0.0
0.0
0.0
0.0
0.038
0.038
0.038
0.038
0.038
0.038
0.038
0.038
0.038
0.076
0.076
0.076
0.076
0.076
0.076
0.076
0.076
0.076

SCALARS	u4	float 1
LOOKUP_TABLE	default
299.472
299.472
299.472
299.472
299.472
299.472
299.472
299.472
299.472
299.472
299.472
299.472
299.472
299.472
299.472
299.472
299.472
299.472
299.472
299.472
299.472
299.472
299.472
299.472
299.472
299.472
299.472

VECTORS	u 	float 
0.0	0.0	0.0
-0.0115693293	0.0	0.0
-0.0231386587	0.0	0.0
0.0	-0.0092554635	0.0
-0.0115693293	-0.0092554635	0.0
-0.0231386587	-0.0092554635	0.0
0.0	-0.0185109269	0.0
-0.0115693293	-0.0185109269	0.0
-0.0231386587	-0.0185109269	0.0
-0.0	0.0	0.0380325586
-0.0115693293	0.0	0.0380325586
-0.0231386587	0.0	0.0380325586
-0.0	-0.0092554635	0.0380325586
-0.0115693293	-0.0092554635	0.0380325586
-0.0231386587	-0.0092554635	0.0380325586
-0.0	-0.0185109269	0.0380325586
-0.0115693293	-0.0185109269	0.0380325586
-0.0231386587	-0.0185109269	0.0380325586
-0.0	0.0	0.0760651172
-0.0115693293	0.0	0.0760651172
-0.0231386587	0.0	0.0760651172
0.0	-0.0092554635	0.0760651172
-0.0115693293	-0.0092554635	0.0760651172
-0.0231386587	-0.0092554635	0.0760651172
-0.0	-0.0185109269	0.0760651172
-0.0115693293	-0.0185109269	0.0760651172
-0.0231386587	-0.0185109269	0.0760651172

VECTORS	v 	float 
0.0	0.0	0.0
0.0223373745	0.0	0.0
0.0446747491	0.0	0.0
0.0	0.0178698996	0.0
0.0223373745	0.0178698996	0.0
0.0446747491	0.0178698996	0.0
0.0	0.0357397993	0.0
0.0223373745	0.0357397993	0.0
0.0446747491	0.0357397993	0.0
0.0	-0.0	-0.077019084
0.0223373745	0.0	-0.077019084
0.0446747491	0.0	-0.077019084
-0.0	0.0178698996	-0.077019084
0.0223373745	0.0178698996	-0.077019084
0.0446747491	0.0178698996	-0.077019084
-0.0	0.0357397993	-0.077019084
0.0223373745	0.0357397993	-0.077019084
0.0446747491	0.0357397993	-0.077019084
0.0	-0.0	-0.154038168
0.0223373745	-0.0	-0.154038168
0.0446747491	0.0	-0.154038168
0.0	0.0178698996	-0.154038168
0.0223373745	0.0178698996	-0.154038168
0.0446747491	0.0178698996	-0.154038168
0.0	0.0357397993	-0.154038168
0.0223373745	0.0357397993	-0.154038168
0.0446747491	0.0357397993	-0.154038168

VECTORS	a 	float 
0.0	0.0	0.0
4.4244480684	0.0	0.0
8.8488961367	0.0	0.0
0.0	3.5395584547	0.0
4.4244480684	3.5395584547	0.0
8.8488961367	3.5395584547	0.0
0.0	7.0791169094	0.0
4.4244480684	7.0791169094	0.0
8.8488961367	7.0791169094	0.0
0.0	-0.0	-15.2478050238
4.4244480684	0.0	-15.2478050238
8.8488961367	-0.0	-15.2478050238
-0.0	3.5395584547	-15.2478050238
4.4244480684	3.5395584547	-15.2478050238
8.8488961367	3.5395584547	-15.2478050238
-0.0	7.0791169094	-15.2478050238
4.4244480684	7.0791169094	-15.2478050238
8.8488961367	7.0791169094	-15.2478050238
0.0	-0.0	-30.4956100477
4.4244480684	-0.0	-30.4956100477
8.8488961367	0.0	-30.4956100477
0.0	3.5395584547	-30.4956100477
4.4244480684	3.5395584547	-30.4956100477
8.8488961367	3.5395584547	-30.4956100477
-0.0	7.0791169094	-30.4956100477
4.4244480684	7.0791169094	-30.4956100477
8.8488961367	7.0791169094	-30.4956100477

SCALARS	theta	float 1
LOOKUP_TABLE	default
299.4724497286
299.4724497286
299.4724497286
299.4724497286
299.4724497286
299.4724497286
299.4724497286
299.4724497286
299.4724497286
299.4724497286
299.4724497286
299.4724497286
299.4724497286
299.4724497286
299.4724497286
299.4724497286
299.4724497286
299.4724497286
299.4724497286
299.4724497286
299.4724497286
299.4724497286
299.4724497286
299.4724497286
299.4724497286
299.4724497286
299.4724497286

SCALARS	sig_11	float	1
LOOKUP_TABLE	default
-2.3e-09
-2.3e-09
-2.3e-09
-2.3e-09
-2.3e-09
-2.3e-09
-2.3e-09
-2.3e-09
-2.3e-09
-2.3e-09
-2.3e-09
-2.3e-09
-2.3e-09
-2.3e-09
-2.3e-09
-2.3e-09
-2.3e-09
-2.3e-09
-2.3e-09
-2.3e-09
-2.3e-09
-2.3e-09
-2.3e-09
-2.3e-09
-2.3e-09
-2.3e-09
-2.3e-09

SCALARS	sig_22	float	1
LOOKUP_TABLE	default
-2.3e-09
-2.3e-09
-2.3e-09
-2.3e-09
-2.3e-09
-2.3e-09
-2.3e-09
-2.3e-09
-2.3e-09
-2.3e-09
-2.3e-09
-2.3e-09
-2.3e-09
-2.3e-09
-2.3e-09
-2.3e-09
-2.3e-09
-2.3e-09
-2.3e-09
-2.3e-09
-2.3e-09
-2.3e-09
-2.3e-09
-2.3e-09
-2.3e-09
-2.3e-09
-2.3e-09

SCALARS	sig_33	float	1
LOOKUP_TABLE	default
124.98993673
124.98993673
124.98993673
124.98993673
124.98993673
124.98993673
124.98993673
124.98993673
124.98993673
124.98993673
124.98993673
124.98993673
124.98993673
124.98993673
124.98993673
124.98993673
124.98993673
124.98993673
124.98993673
124.98993673
124.98993673
124.98993673
124.98993673
124.98993673
124.98993673
124.98993673
124.98993673

SCALARS vonMises	float	1
LOOKUP_TABLE	default
88.3812318435
88.3812318435
88.3812318435
88.3812318435
88.3812318435
88.3812318435
88.3812318435
88.3812318435
88.3812318435
88.3812318435
88.3812318435
88.3812318435
88.3812318435
88.3812318435
88.3812318435
88.3812318435
88.3812318435
88.3812318435
88.3812318435
88.3812318435
88.3812318435
88.3812318435
88.3812318435
88.3812318435
88.3812318435
88.3812318435
88.3812318435
