# vtk DataFile Version 2.0
Results
ASCII
DATASET UNSTRUCTURED_GRID
POINTS         27           float
0.0	0.0	0.0	
50.0	0.0	0.0	
100.0	0.0	0.0	
0.0	40.0	0.0	
50.0	40.0	0.0	
100.0	40.0	0.0	
0.0	80.0	0.0	
50.0	80.0	0.0	
100.0	80.0	0.0	
0.0	0.0	70.0	
50.0	0.0	70.0	
100.0	0.0	70.0	
0.0	40.0	70.0	
50.0	40.0	70.0	
100.0	40.0	70.0	
0.0	80.0	70.0	
50.0	80.0	70.0	
100.0	80.0	70.0	
0.0	0.0	140.0	
50.0	0.0	140.0	
100.0	0.0	140.0	
0.0	40.0	140.0	
50.0	40.0	140.0	
100.0	40.0	140.0	
0.0	80.0	140.0	
50.0	80.0	140.0	
100.0	80.0	140.0	

CELLS	8	72
 8	0	1	4	3	9	10	13	12	
 8	1	2	5	4	10	11	14	13	
 8	4	5	8	7	13	14	17	16	
 8	3	4	7	6	12	13	16	15	
 8	9	10	13	12	18	19	22	21	
 8	10	11	14	13	19	20	23	22	
 8	13	14	17	16	22	23	26	25	
 8	12	13	16	15	21	22	25	24	

CELL_TYPES	8
 12
 12
 12
 12
 12
 12
 12
 12

POINT_DATA	27
SCALARS	u1	float 1
LOOKUP_TABLE	default
0.0
-0.011
-0.023
0.0
-0.011
-0.023
0.0
-0.011
-0.023
0.0
-0.011
-0.023
-0.0
-0.011
-0.023
0.0
-0.011
-0.023
-0.0
-0.011
-0.023
-0.0
-0.011
-0.023
-0.0
-0.011
-0.023

SCALARS	u2	float 1
LOOKUP_TABLE	default
0.0
0.0
0.0
-0.009
-0.009
-0.009
-0.018
-0.018
-0.018
-0.0
-0.0
-0.0
-0.009
-0.009
-0.009
-0.018
-0.018
-0.018
-0.0
-0.0
-0.0
-0.009
-0.009
-0.009
-0.018
-0.018
-0.018

SCALARS	u3	float 1
LOOKUP_TABLE	default
0.0
0.0
0.0
0.0
0.0
0.0
0.0
0.0
0.0
0.038
0.038
0.038
0.038
0.038
0.038
0.038
0.038
0.038
0.077
0.077
0.077
0.077
0.077
0.077
0.077
0.077
0.077

SCALARS	u4	float 1
LOOKUP_TABLE	default
299.524
299.524
299.524
299.524
299.524
299.524
299.524
299.524
299.524
299.524
299.524
299.524
299.524
299.524
299.524
299.524
299.524
299.524
299.524
299.524
299.524
299.524
299.524
299.524
299.524
299.524
299.524

VECTORS	u 	float 
0.0	0.0	0.0
-0.0113108437	0.0	0.0
-0.0226216874	0.0	0.0
0.0	-0.0090486749	0.0
-0.0113108437	-0.0090486749	0.0
-0.0226216874	-0.0090486749	0.0
0.0	-0.0180973499	0.0
-0.0113108437	-0.0180973499	0.0
-0.0226216874	-0.0180973499	0.0
0.0	-0.0	0.038394438
-0.0113108437	-0.0	0.038394438
-0.0226216874	-0.0	0.038394438
-0.0	-0.0090486749	0.038394438
-0.0113108437	-0.0090486749	0.038394438
-0.0226216874	-0.0090486749	0.038394438
0.0	-0.0180973499	0.038394438
-0.0113108437	-0.0180973499	0.038394438
-0.0226216874	-0.0180973499	0.038394438
-0.0	-0.0	0.0767888759
-0.0113108437	-0.0	0.0767888759
-0.0226216874	-0.0	0.0767888759
-0.0	-0.0090486749	0.0767888759
-0.0113108437	-0.0090486749	0.0767888759
-0.0226216874	-0.0090486749	0.0767888759
-0.0	-0.0180973499	0.0767888759
-0.0113108437	-0.0180973499	0.0767888759
-0.0226216874	-0.0180973499	0.0767888759

VECTORS	v 	float 
0.0	0.0	0.0
0.0223376991	0.0	0.0
0.0446753983	0.0	0.0
0.0	0.0178701593	0.0
0.0223376991	0.0178701593	0.0
0.0446753983	0.0178701593	0.0
0.0	0.0357403186	0.0
0.0223376991	0.0357403186	0.0
0.0446753983	0.0357403186	0.0
0.0	0.0	-0.0770186284
0.0223376991	0.0	-0.0770186284
0.0446753983	-0.0	-0.0770186284
-0.0	0.0178701593	-0.0770186284
0.0223376991	0.0178701593	-0.0770186284
0.0446753983	0.0178701593	-0.0770186284
-0.0	0.0357403186	-0.0770186284
0.0223376991	0.0357403186	-0.0770186284
0.0446753983	0.0357403186	-0.0770186284
-0.0	-0.0	-0.1540372568
0.0223376991	-0.0	-0.1540372568
0.0446753983	0.0	-0.1540372568
-0.0	0.0178701593	-0.1540372568
0.0223376991	0.0178701593	-0.1540372568
0.0446753983	0.0178701593	-0.1540372568
-0.0	0.0357403186	-0.1540372568
0.0223376991	0.0357403186	-0.1540372568
0.0446753983	0.0357403186	-0.1540372568

VECTORS	a 	float 
0.0	0.0	0.0
1.3855093663	0.0	0.0
2.7710187326	0.0	0.0
0.0	1.1084074931	0.0
1.3855093663	1.1084074931	0.0
2.7710187326	1.1084074931	0.0
0.0	2.2168149861	0.0
1.3855093663	2.2168149861	0.0
2.7710187326	2.2168149861	0.0
0.0	-0.0	-4.7746888682
1.3855093663	0.0	-4.7746888682
2.7710187326	-0.0	-4.7746888682
0.0	1.1084074931	-4.7746888682
1.3855093663	1.1084074931	-4.7746888682
2.7710187326	1.1084074931	-4.7746888682
0.0	2.2168149861	-4.7746888682
1.3855093663	2.2168149861	-4.7746888682
2.7710187326	2.2168149861	-4.7746888682
0.0	-0.0	-9.5493777365
1.3855093663	-0.0	-9.5493777365
2.7710187326	0.0	-9.5493777365
0.0	1.1084074931	-9.5493777365
1.3855093663	1.1084074931	-9.5493777365
2.7710187326	1.1084074931	-9.5493777365
0.0	2.2168149861	-9.5493777365
1.3855093663	2.2168149861	-9.5493777365
2.7710187326	2.2168149861	-9.5493777365

SCALARS	theta	float 1
LOOKUP_TABLE	default
299.5241473473
299.5241473473
299.5241473473
299.5241473473
299.5241473473
299.5241473473
299.5241473473
299.5241473473
299.5241473473
299.5241473473
299.5241473473
299.5241473473
299.5241473473
299.5241473473
299.5241473473
299.5241473473
299.5241473473
299.5241473473
299.5241473473
299.5241473473
299.5241473473
299.5241473473
299.5241473473
299.5241473473
299.5241473473
299.5241473473
299.5241473473

SCALARS	sig_11	float	1
LOOKUP_TABLE	default
-2.3e-09
-2.3e-09
-2.4e-09
-2.3e-09
-2.4e-09
-2.4e-09
-2.4e-09
-2.4e-09
-2.4e-09
-2.3e-09
-2.4e-09
-2.4e-09
-2.3e-09
-2.3e-09
-2.3e-09
-2.3e-09
-2.3e-09
-2.4e-09
-2.4e-09
-2.4e-09
-2.4e-09
-2.3e-09
-2.3e-09
-2.3e-09
-2.3e-09
-2.3e-09
-2.3e-09

SCALARS	sig_22	float	1
LOOKUP_TABLE	default
-2.3e-09
-2.3e-09
-2.4e-09
-2.4e-09
-2.4e-09
-2.4e-09
-2.4e-09
-2.4e-09
-2.4e-09
-2.4e-09
-2.4e-09
-2.4e-09
-2.4e-09
-2.4e-09
-2.3e-09
-2.3e-09
-2.3e-09
-2.4e-09
-2.4e-09
-2.4e-09
-2.4e-09
-2.4e-09
-2.4e-09
-2.3e-09
-2.3e-09
-2.3e-09
-2.3e-09

SCALARS	sig_33	float	1
LOOKUP_TABLE	default
124.9879990174
124.9879990173
124.9879990173
124.9879990173
124.9879990173
124.9879990173
124.9879990173
124.9879990173
124.9879990173
124.9879990173
124.9879990173
124.9879990173
124.9879990173
124.9879990173
124.9879990173
124.9879990173
124.9879990173
124.9879990173
124.9879990173
124.9879990173
124.9879990173
124.9879990173
124.9879990173
124.9879990173
124.9879990173
124.9879990173
124.9879990173

SCALARS vonMises	float	1
LOOKUP_TABLE	default
88.3798616738
88.3798616738
88.3798616738
88.3798616738
88.3798616738
88.3798616738
88.3798616738
88.3798616738
88.3798616738
88.3798616738
88.3798616738
88.3798616738
88.3798616738
88.3798616738
88.3798616738
88.3798616738
88.3798616738
88.3798616738
88.3798616738
88.3798616738
88.3798616738
88.3798616738
88.3798616738
88.3798616738
88.3798616738
88.3798616738
88.3798616738
