# vtk DataFile Version 2.0
Results
ASCII
DATASET UNSTRUCTURED_GRID
POINTS         27           float
0.0	0.0	0.0	
50.0	0.0	0.0	
100.0	0.0	0.0	
0.0	40.0	0.0	
50.0	40.0	0.0	
100.0	40.0	0.0	
0.0	80.0	0.0	
50.0	80.0	0.0	
100.0	80.0	0.0	
0.0	0.0	70.0	
50.0	0.0	70.0	
100.0	0.0	70.0	
0.0	40.0	70.0	
50.0	40.0	70.0	
100.0	40.0	70.0	
0.0	80.0	70.0	
50.0	80.0	70.0	
100.0	80.0	70.0	
0.0	0.0	140.0	
50.0	0.0	140.0	
100.0	0.0	140.0	
0.0	40.0	140.0	
50.0	40.0	140.0	
100.0	40.0	140.0	
0.0	80.0	140.0	
50.0	80.0	140.0	
100.0	80.0	140.0	

CELLS	8	72
 8	0	1	4	3	9	10	13	12	
 8	1	2	5	4	10	11	14	13	
 8	4	5	8	7	13	14	17	16	
 8	3	4	7	6	12	13	16	15	
 8	9	10	13	12	18	19	22	21	
 8	10	11	14	13	19	20	23	22	
 8	13	14	17	16	22	23	26	25	
 8	12	13	16	15	21	22	25	24	

CELL_TYPES	8
 12
 12
 12
 12
 12
 12
 12
 12

POINT_DATA	27
SCALARS	u1	float 1
LOOKUP_TABLE	default
0.0
-0.012
-0.023
0.0
-0.012
-0.023
0.0
-0.012
-0.023
0.0
-0.012
-0.023
0.0
-0.012
-0.023
0.0
-0.012
-0.023
0.0
-0.012
-0.023
0.0
-0.012
-0.023
0.0
-0.012
-0.023

SCALARS	u2	float 1
LOOKUP_TABLE	default
0.0
0.0
0.0
-0.009
-0.009
-0.009
-0.018
-0.018
-0.018
0.0
0.0
0.0
-0.009
-0.009
-0.009
-0.018
-0.018
-0.018
0.0
0.0
0.0
-0.009
-0.009
-0.009
-0.018
-0.018
-0.018

SCALARS	u3	float 1
LOOKUP_TABLE	default
0.0
0.0
0.0
0.0
0.0
0.0
0.0
0.0
0.0
0.038
0.038
0.038
0.038
0.038
0.038
0.038
0.038
0.038
0.076
0.076
0.076
0.076
0.076
0.076
0.076
0.076
0.076

SCALARS	u4	float 1
LOOKUP_TABLE	default
299.482
299.482
299.482
299.482
299.482
299.482
299.482
299.482
299.482
299.482
299.482
299.482
299.482
299.482
299.482
299.482
299.482
299.482
299.482
299.482
299.482
299.482
299.482
299.482
299.482
299.482
299.482

VECTORS	u 	float 
0.0	0.0	0.0
-0.0115237155	0.0	0.0
-0.023047431	0.0	0.0
0.0	-0.0092189724	0.0
-0.0115237155	-0.0092189724	0.0
-0.023047431	-0.0092189724	0.0
0.0	-0.0184379448	0.0
-0.0115237155	-0.0184379448	0.0
-0.023047431	-0.0184379448	0.0
0.0	0.0	0.0380964179
-0.0115237155	0.0	0.0380964179
-0.023047431	0.0	0.0380964179
0.0	-0.0092189724	0.0380964179
-0.0115237155	-0.0092189724	0.0380964179
-0.023047431	-0.0092189724	0.0380964179
0.0	-0.0184379448	0.0380964179
-0.0115237155	-0.0184379448	0.0380964179
-0.023047431	-0.0184379448	0.0380964179
0.0	0.0	0.0761928357
-0.0115237155	0.0	0.0761928357
-0.023047431	0.0	0.0761928357
0.0	-0.0092189724	0.0761928357
-0.0115237155	-0.0092189724	0.0761928357
-0.023047431	-0.0092189724	0.0761928357
0.0	-0.0184379448	0.0761928357
-0.0115237155	-0.0184379448	0.0761928357
-0.023047431	-0.0184379448	0.0761928357

VECTORS	v 	float 
0.0	0.0	0.0
0.0223374318	0.0	0.0
0.0446748636	0.0	0.0
0.0	0.0178699455	0.0
0.0223374318	0.0178699455	0.0
0.0446748636	0.0178699455	0.0
0.0	0.0357398909	0.0
0.0223374318	0.0357398909	0.0
0.0446748636	0.0357398909	0.0
0.0	-0.0	-0.0770190036
0.0223374318	-0.0	-0.0770190036
0.0446748636	-0.0	-0.0770190036
-0.0	0.0178699455	-0.0770190036
0.0223374318	0.0178699455	-0.0770190036
0.0446748636	0.0178699455	-0.0770190036
-0.0	0.0357398909	-0.0770190036
0.0223374318	0.0357398909	-0.0770190036
0.0446748636	0.0357398909	-0.0770190036
0.0	-0.0	-0.1540380072
0.0223374318	-0.0	-0.1540380072
0.0446748636	-0.0	-0.1540380072
-0.0	0.0178699455	-0.1540380072
0.0223374318	0.0178699455	-0.1540380072
0.0446748636	0.0178699455	-0.1540380072
-0.0	0.0357398909	-0.1540380072
0.0223374318	0.0357398909	-0.1540380072
0.0446748637	0.0357398909	-0.1540380072

VECTORS	a 	float 
0.0	0.0	0.0
3.8881679808	0.0	0.0
7.7763359617	0.0	0.0
0.0	3.1105343847	0.0
3.8881679808	3.1105343847	0.0
7.7763359617	3.1105343847	0.0
0.0	6.2210687693	0.0
3.8881679808	6.2210687693	0.0
7.7763359617	6.2210687693	0.0
0.0	-0.0	-13.3996035463
3.8881679808	0.0	-13.3996035463
7.7763359617	-0.0	-13.3996035463
0.0	3.1105343847	-13.3996035463
3.8881679808	3.1105343847	-13.3996035463
7.7763359617	3.1105343847	-13.3996035463
-0.0	6.2210687693	-13.3996035463
3.8881679808	6.2210687693	-13.3996035463
7.7763359617	6.2210687693	-13.3996035463
0.0	-0.0	-26.7992070926
3.8881679808	-0.0	-26.7992070926
7.7763359617	0.0	-26.7992070926
0.0	3.1105343847	-26.7992070926
3.8881679808	3.1105343847	-26.7992070926
7.7763359617	3.1105343847	-26.7992070926
-0.0	6.2210687693	-26.7992070926
3.8881679808	6.2210687693	-26.7992070926
7.7763359617	6.2210687693	-26.7992070926

SCALARS	theta	float 1
LOOKUP_TABLE	default
299.4815726285
299.4815726285
299.4815726285
299.4815726285
299.4815726285
299.4815726285
299.4815726285
299.4815726285
299.4815726285
299.4815726285
299.4815726285
299.4815726285
299.4815726285
299.4815726285
299.4815726285
299.4815726285
299.4815726285
299.4815726285
299.4815726285
299.4815726285
299.4815726285
299.4815726285
299.4815726285
299.4815726285
299.4815726285
299.4815726285
299.4815726285

SCALARS	sig_11	float	1
LOOKUP_TABLE	default
-2.3e-09
-2.3e-09
-2.3e-09
-2.3e-09
-2.3e-09
-2.3e-09
-2.3e-09
-2.3e-09
-2.3e-09
-2.3e-09
-2.3e-09
-2.3e-09
-2.3e-09
-2.3e-09
-2.3e-09
-2.3e-09
-2.3e-09
-2.3e-09
-2.3e-09
-2.3e-09
-2.3e-09
-2.3e-09
-2.3e-09
-2.3e-09
-2.3e-09
-2.3e-09
-2.3e-09

SCALARS	sig_22	float	1
LOOKUP_TABLE	default
-2.3e-09
-2.3e-09
-2.3e-09
-2.3e-09
-2.3e-09
-2.3e-09
-2.3e-09
-2.3e-09
-2.3e-09
-2.3e-09
-2.3e-09
-2.3e-09
-2.3e-09
-2.3e-09
-2.3e-09
-2.3e-09
-2.3e-09
-2.3e-09
-2.3e-09
-2.3e-09
-2.3e-09
-2.3e-09
-2.3e-09
-2.3e-09
-2.3e-09
-2.3e-09
-2.3e-09

SCALARS	sig_33	float	1
LOOKUP_TABLE	default
124.9895947869
124.9895947869
124.9895947869
124.9895947869
124.9895947869
124.9895947869
124.9895947869
124.9895947869
124.9895947869
124.9895947869
124.9895947869
124.9895947869
124.9895947869
124.9895947869
124.9895947869
124.9895947869
124.9895947869
124.9895947869
124.9895947869
124.9895947869
124.9895947869
124.9895947869
124.9895947869
124.9895947869
124.9895947869
124.9895947869
124.9895947869

SCALARS vonMises	float	1
LOOKUP_TABLE	default
88.3809900532
88.3809900532
88.3809900532
88.3809900532
88.3809900532
88.3809900532
88.3809900532
88.3809900532
88.3809900532
88.3809900532
88.3809900532
88.3809900532
88.3809900532
88.3809900532
88.3809900532
88.3809900532
88.3809900532
88.3809900532
88.3809900532
88.3809900532
88.3809900532
88.3809900532
88.3809900532
88.3809900532
88.3809900532
88.3809900532
88.3809900532
