# vtk DataFile Version 2.0
Results
ASCII
DATASET UNSTRUCTURED_GRID
POINTS         27           float
0.0	0.0	0.0	
50.0	0.0	0.0	
100.0	0.0	0.0	
0.0	40.0	0.0	
50.0	40.0	0.0	
100.0	40.0	0.0	
0.0	80.0	0.0	
50.0	80.0	0.0	
100.0	80.0	0.0	
0.0	0.0	70.0	
50.0	0.0	70.0	
100.0	0.0	70.0	
0.0	40.0	70.0	
50.0	40.0	70.0	
100.0	40.0	70.0	
0.0	80.0	70.0	
50.0	80.0	70.0	
100.0	80.0	70.0	
0.0	0.0	140.0	
50.0	0.0	140.0	
100.0	0.0	140.0	
0.0	40.0	140.0	
50.0	40.0	140.0	
100.0	40.0	140.0	
0.0	80.0	140.0	
50.0	80.0	140.0	
100.0	80.0	140.0	

CELLS	8	72
 8	0	1	4	3	9	10	13	12	
 8	1	2	5	4	10	11	14	13	
 8	4	5	8	7	13	14	17	16	
 8	3	4	7	6	12	13	16	15	
 8	9	10	13	12	18	19	22	21	
 8	10	11	14	13	19	20	23	22	
 8	13	14	17	16	22	23	26	25	
 8	12	13	16	15	21	22	25	24	

CELL_TYPES	8
 12
 12
 12
 12
 12
 12
 12
 12

POINT_DATA	27
SCALARS	u1	float 1
LOOKUP_TABLE	default
0.0
-0.012
-0.023
0.0
-0.012
-0.023
0.0
-0.012
-0.023
0.0
-0.012
-0.023
0.0
-0.012
-0.023
0.0
-0.012
-0.023
0.0
-0.012
-0.023
0.0
-0.012
-0.023
0.0
-0.012
-0.023

SCALARS	u2	float 1
LOOKUP_TABLE	default
0.0
0.0
0.0
-0.009
-0.009
-0.009
-0.019
-0.019
-0.019
-0.0
-0.0
0.0
-0.009
-0.009
-0.009
-0.019
-0.019
-0.019
0.0
-0.0
0.0
-0.009
-0.009
-0.009
-0.019
-0.019
-0.019

SCALARS	u3	float 1
LOOKUP_TABLE	default
0.0
0.0
0.0
0.0
0.0
0.0
0.0
0.0
0.0
0.038
0.038
0.038
0.038
0.038
0.038
0.038
0.038
0.038
0.076
0.076
0.076
0.076
0.076
0.076
0.076
0.076
0.076

SCALARS	u4	float 1
LOOKUP_TABLE	default
299.444
299.444
299.444
299.444
299.444
299.444
299.444
299.444
299.444
299.444
299.444
299.444
299.444
299.444
299.444
299.444
299.444
299.444
299.444
299.444
299.444
299.444
299.444
299.444
299.444
299.444
299.444

VECTORS	u 	float 
0.0	0.0	0.0
-0.0117137645	0.0	0.0
-0.0234275289	0.0	0.0
0.0	-0.0093710116	0.0
-0.0117137645	-0.0093710116	0.0
-0.0234275289	-0.0093710116	0.0
0.0	-0.0187420232	0.0
-0.0117137645	-0.0187420232	0.0
-0.0234275289	-0.0187420232	0.0
0.0	-0.0	0.0378303497
-0.0117137645	-0.0	0.0378303497
-0.0234275289	0.0	0.0378303497
0.0	-0.0093710116	0.0378303497
-0.0117137645	-0.0093710116	0.0378303497
-0.0234275289	-0.0093710116	0.0378303497
0.0	-0.0187420232	0.0378303497
-0.0117137645	-0.0187420232	0.0378303497
-0.0234275289	-0.0187420232	0.0378303497
0.0	0.0	0.0756606994
-0.0117137645	-0.0	0.0756606994
-0.0234275289	0.0	0.0756606994
0.0	-0.0093710116	0.0756606994
-0.0117137645	-0.0093710116	0.0756606994
-0.0234275289	-0.0093710116	0.0756606994
0.0	-0.0187420232	0.0756606994
-0.0117137645	-0.0187420232	0.0756606994
-0.0234275289	-0.0187420232	0.0756606994

VECTORS	v 	float 
0.0	0.0	0.0
-0.0223523934	0.0	0.0
-0.0447047868	0.0	0.0
0.0	-0.0178819147	0.0
-0.0223523934	-0.0178819147	0.0
-0.0447047868	-0.0178819147	0.0
0.0	-0.0357638295	0.0
-0.0223523934	-0.0357638295	0.0
-0.0447047868	-0.0357638295	0.0
-0.0	-0.0	0.0769980417
-0.0223523934	-0.0	0.0769980417
-0.0447047868	-0.0	0.0769980417
0.0	-0.0178819147	0.0769980417
-0.0223523934	-0.0178819147	0.0769980417
-0.0447047868	-0.0178819147	0.0769980417
0.0	-0.0357638295	0.0769980417
-0.0223523934	-0.0357638295	0.0769980417
-0.0447047868	-0.0357638295	0.0769980417
-0.0	0.0	0.1539960834
-0.0223523934	-0.0	0.1539960834
-0.0447047868	-0.0	0.1539960834
-0.0	-0.0178819147	0.1539960834
-0.0223523934	-0.0178819147	0.1539960834
-0.0447047868	-0.0178819147	0.1539960834
-0.0	-0.0357638295	0.1539960834
-0.0223523934	-0.0357638295	0.1539960834
-0.0447047868	-0.0357638295	0.1539960834

VECTORS	a 	float 
0.0	0.0	0.0
-6.1226592608	0.0	0.0
-12.2453185217	0.0	0.0
0.0	-4.8981274087	0.0
-6.1226592608	-4.8981274087	0.0
-12.2453185217	-4.8981274087	0.0
0.0	-9.7962548173	0.0
-6.1226592608	-9.7962548173	0.0
-12.2453185217	-9.7962548173	0.0
-0.0	0.0	21.1004557853
-6.1226592608	-0.0	21.1004557853
-12.2453185217	-0.0	21.1004557853
0.0	-4.8981274087	21.1004557853
-6.1226592608	-4.8981274087	21.1004557853
-12.2453185217	-4.8981274087	21.1004557853
0.0	-9.7962548173	21.1004557853
-6.1226592608	-9.7962548173	21.1004557853
-12.2453185217	-9.7962548173	21.1004557853
-0.0	0.0	42.2009115705
-6.1226592608	0.0	42.2009115705
-12.2453185217	-0.0	42.2009115705
-0.0	-4.8981274087	42.2009115705
-6.1226592608	-4.8981274087	42.2009115705
-12.2453185217	-4.8981274087	42.2009115705
-0.0	-9.7962548173	42.2009115705
-6.1226592608	-9.7962548173	42.2009115705
-12.2453185217	-9.7962548173	42.2009115705

SCALARS	theta	float 1
LOOKUP_TABLE	default
299.4435621534
299.4435621534
299.4435621534
299.4435621534
299.4435621534
299.4435621534
299.4435621534
299.4435621534
299.4435621534
299.4435621534
299.4435621534
299.4435621534
299.4435621534
299.4435621534
299.4435621534
299.4435621534
299.4435621534
299.4435621534
299.4435621534
299.4435621534
299.4435621534
299.4435621534
299.4435621534
299.4435621534
299.4435621534
299.4435621534
299.4435621534

SCALARS	sig_11	float	1
LOOKUP_TABLE	default
-2.3e-09
-2.3e-09
-2.3e-09
-2.3e-09
-2.3e-09
-2.3e-09
-2.3e-09
-2.3e-09
-2.3e-09
-2.3e-09
-2.3e-09
-2.3e-09
-2.3e-09
-2.3e-09
-2.3e-09
-2.3e-09
-2.3e-09
-2.3e-09
-2.3e-09
-2.3e-09
-2.3e-09
-2.3e-09
-2.3e-09
-2.3e-09
-2.3e-09
-2.3e-09
-2.3e-09

SCALARS	sig_22	float	1
LOOKUP_TABLE	default
-2.3e-09
-2.3e-09
-2.3e-09
-2.3e-09
-2.3e-09
-2.3e-09
-2.3e-09
-2.3e-09
-2.3e-09
-2.3e-09
-2.3e-09
-2.3e-09
-2.3e-09
-2.3e-09
-2.3e-09
-2.4e-09
-2.3e-09
-2.3e-09
-2.3e-09
-2.3e-09
-2.3e-09
-2.3e-09
-2.3e-09
-2.3e-09
-2.4e-09
-2.3e-09
-2.3e-09

SCALARS	sig_33	float	1
LOOKUP_TABLE	default
124.9910195704
124.9910195704
124.9910195704
124.9910195704
124.9910195704
124.9910195704
124.9910195704
124.9910195704
124.9910195704
124.9910195704
124.9910195704
124.9910195704
124.9910195704
124.9910195704
124.9910195704
124.9910195704
124.9910195704
124.9910195704
124.9910195704
124.9910195704
124.9910195704
124.9910195704
124.9910195704
124.9910195704
124.9910195704
124.9910195704
124.9910195704

SCALARS vonMises	float	1
LOOKUP_TABLE	default
88.3819975273
88.3819975273
88.3819975273
88.3819975273
88.3819975273
88.3819975273
88.3819975273
88.3819975273
88.3819975273
88.3819975273
88.3819975273
88.3819975273
88.3819975273
88.3819975273
88.3819975273
88.3819975273
88.3819975273
88.3819975273
88.3819975273
88.3819975273
88.3819975273
88.3819975273
88.3819975273
88.3819975273
88.3819975273
88.3819975273
88.3819975273
