# vtk DataFile Version 2.0
Results
ASCII
DATASET UNSTRUCTURED_GRID
POINTS         27           float
0.0	0.0	0.0	
50.0	0.0	0.0	
100.0	0.0	0.0	
0.0	40.0	0.0	
50.0	40.0	0.0	
100.0	40.0	0.0	
0.0	80.0	0.0	
50.0	80.0	0.0	
100.0	80.0	0.0	
0.0	0.0	70.0	
50.0	0.0	70.0	
100.0	0.0	70.0	
0.0	40.0	70.0	
50.0	40.0	70.0	
100.0	40.0	70.0	
0.0	80.0	70.0	
50.0	80.0	70.0	
100.0	80.0	70.0	
0.0	0.0	140.0	
50.0	0.0	140.0	
100.0	0.0	140.0	
0.0	40.0	140.0	
50.0	40.0	140.0	
100.0	40.0	140.0	
0.0	80.0	140.0	
50.0	80.0	140.0	
100.0	80.0	140.0	

CELLS	8	72
 8	0	1	4	3	9	10	13	12	
 8	1	2	5	4	10	11	14	13	
 8	4	5	8	7	13	14	17	16	
 8	3	4	7	6	12	13	16	15	
 8	9	10	13	12	18	19	22	21	
 8	10	11	14	13	19	20	23	22	
 8	13	14	17	16	22	23	26	25	
 8	12	13	16	15	21	22	25	24	

CELL_TYPES	8
 12
 12
 12
 12
 12
 12
 12
 12

POINT_DATA	27
SCALARS	u1	float 1
LOOKUP_TABLE	default
0.0
-0.011
-0.023
0.0
-0.011
-0.023
0.0
-0.011
-0.023
-0.0
-0.011
-0.023
-0.0
-0.011
-0.023
-0.0
-0.011
-0.023
-0.0
-0.011
-0.023
-0.0
-0.011
-0.023
-0.0
-0.011
-0.023

SCALARS	u2	float 1
LOOKUP_TABLE	default
0.0
0.0
0.0
-0.009
-0.009
-0.009
-0.018
-0.018
-0.018
0.0
0.0
-0.0
-0.009
-0.009
-0.009
-0.018
-0.018
-0.018
-0.0
-0.0
-0.0
-0.009
-0.009
-0.009
-0.018
-0.018
-0.018

SCALARS	u3	float 1
LOOKUP_TABLE	default
0.0
0.0
0.0
0.0
0.0
0.0
0.0
0.0
0.0
0.038
0.038
0.038
0.038
0.038
0.038
0.038
0.038
0.038
0.076
0.076
0.076
0.076
0.076
0.076
0.076
0.076
0.076

SCALARS	u4	float 1
LOOKUP_TABLE	default
299.494
299.494
299.494
299.494
299.494
299.494
299.494
299.494
299.494
299.494
299.494
299.494
299.494
299.494
299.494
299.494
299.494
299.494
299.494
299.494
299.494
299.494
299.494
299.494
299.494
299.494
299.494

VECTORS	u 	float 
0.0	0.0	0.0
-0.0114628962	0.0	0.0
-0.0229257924	0.0	0.0
0.0	-0.009170317	0.0
-0.0114628962	-0.009170317	0.0
-0.0229257924	-0.009170317	0.0
0.0	-0.0183406339	0.0
-0.0114628962	-0.0183406339	0.0
-0.0229257924	-0.0183406339	0.0
-0.0	0.0	0.0381815648
-0.0114628962	0.0	0.0381815648
-0.0229257924	-0.0	0.0381815648
-0.0	-0.009170317	0.0381815648
-0.0114628962	-0.009170317	0.0381815648
-0.0229257924	-0.009170317	0.0381815648
-0.0	-0.0183406339	0.0381815648
-0.0114628962	-0.0183406339	0.0381815648
-0.0229257924	-0.0183406339	0.0381815648
-0.0	-0.0	0.0763631295
-0.0114628962	-0.0	0.0763631295
-0.0229257924	-0.0	0.0763631295
-0.0	-0.009170317	0.0763631295
-0.0114628962	-0.009170317	0.0763631295
-0.0229257924	-0.009170317	0.0763631295
-0.0	-0.0183406339	0.0763631295
-0.0114628962	-0.0183406339	0.0763631295
-0.0229257924	-0.0183406339	0.0763631295

VECTORS	v 	float 
0.0	0.0	0.0
0.0223375082	0.0	0.0
0.0446750164	0.0	0.0
0.0	0.0178700066	0.0
0.0223375082	0.0178700066	0.0
0.0446750164	0.0178700066	0.0
0.0	0.0357400131	0.0
0.0223375082	0.0357400131	0.0
0.0446750164	0.0357400131	0.0
0.0	-0.0	-0.0770188964
0.0223375082	0.0	-0.0770188964
0.0446750164	0.0	-0.0770188964
0.0	0.0178700066	-0.0770188964
0.0223375082	0.0178700066	-0.0770188964
0.0446750164	0.0178700066	-0.0770188964
-0.0	0.0357400131	-0.0770188964
0.0223375082	0.0357400131	-0.0770188964
0.0446750164	0.0357400131	-0.0770188964
0.0	-0.0	-0.1540377928
0.0223375082	-0.0	-0.1540377928
0.0446750164	-0.0	-0.1540377928
0.0	0.0178700066	-0.1540377928
0.0223375082	0.0178700066	-0.1540377928
0.0446750164	0.0178700066	-0.1540377928
0.0	0.0357400131	-0.1540377928
0.0223375082	0.0357400131	-0.1540377928
0.0446750164	0.0357400131	-0.1540377928

VECTORS	a 	float 
0.0	0.0	0.0
3.1731257222	0.0	0.0
6.3462514444	0.0	0.0
0.0	2.5385005778	0.0
3.1731257222	2.5385005778	0.0
6.3462514444	2.5385005778	0.0
0.0	5.0770011555	0.0
3.1731257222	5.0770011555	0.0
6.3462514444	5.0770011555	0.0
0.0	-0.0	-10.9353379156
3.1731257222	0.0	-10.9353379156
6.3462514444	-0.0	-10.9353379156
0.0	2.5385005778	-10.9353379156
3.1731257222	2.5385005778	-10.9353379156
6.3462514444	2.5385005778	-10.9353379156
-0.0	5.0770011555	-10.9353379156
3.1731257222	5.0770011555	-10.9353379156
6.3462514444	5.0770011555	-10.9353379156
0.0	-0.0	-21.8706758313
3.1731257222	-0.0	-21.8706758313
6.3462514444	0.0	-21.8706758313
0.0	2.5385005778	-21.8706758313
3.1731257222	2.5385005778	-21.8706758313
6.3462514444	2.5385005778	-21.8706758313
-0.0	5.0770011555	-21.8706758313
3.1731257222	5.0770011555	-21.8706758313
6.3462514444	5.0770011555	-21.8706758313

SCALARS	theta	float 1
LOOKUP_TABLE	default
299.4937366346
299.4937366346
299.4937366346
299.4937366346
299.4937366346
299.4937366346
299.4937366346
299.4937366346
299.4937366346
299.4937366346
299.4937366346
299.4937366346
299.4937366346
299.4937366346
299.4937366346
299.4937366346
299.4937366346
299.4937366346
299.4937366346
299.4937366346
299.4937366346
299.4937366346
299.4937366346
299.4937366346
299.4937366346
299.4937366346
299.4937366346

SCALARS	sig_11	float	1
LOOKUP_TABLE	default
-2.3e-09
-2.3e-09
-2.3e-09
-2.3e-09
-2.3e-09
-2.3e-09
-2.3e-09
-2.3e-09
-2.3e-09
-2.3e-09
-2.3e-09
-2.3e-09
-2.3e-09
-2.3e-09
-2.3e-09
-2.3e-09
-2.3e-09
-2.3e-09
-2.3e-09
-2.3e-09
-2.3e-09
-2.3e-09
-2.3e-09
-2.3e-09
-2.3e-09
-2.3e-09
-2.3e-09

SCALARS	sig_22	float	1
LOOKUP_TABLE	default
-2.3e-09
-2.3e-09
-2.3e-09
-2.3e-09
-2.3e-09
-2.3e-09
-2.3e-09
-2.3e-09
-2.3e-09
-2.3e-09
-2.3e-09
-2.3e-09
-2.3e-09
-2.3e-09
-2.3e-09
-2.3e-09
-2.3e-09
-2.3e-09
-2.3e-09
-2.3e-09
-2.3e-09
-2.3e-09
-2.3e-09
-2.3e-09
-2.3e-09
-2.3e-09
-2.3e-09

SCALARS	sig_33	float	1
LOOKUP_TABLE	default
124.9891388586
124.9891388586
124.9891388586
124.9891388586
124.9891388586
124.9891388586
124.9891388586
124.9891388586
124.9891388586
124.9891388586
124.9891388586
124.9891388586
124.9891388586
124.9891388586
124.9891388586
124.9891388586
124.9891388586
124.9891388586
124.9891388586
124.9891388586
124.9891388586
124.9891388586
124.9891388586
124.9891388586
124.9891388586
124.9891388586
124.9891388586

SCALARS vonMises	float	1
LOOKUP_TABLE	default
88.3806676632
88.3806676632
88.3806676632
88.3806676632
88.3806676632
88.3806676632
88.3806676632
88.3806676632
88.3806676632
88.3806676632
88.3806676632
88.3806676632
88.3806676632
88.3806676632
88.3806676632
88.3806676632
88.3806676632
88.3806676632
88.3806676632
88.3806676632
88.3806676632
88.3806676632
88.3806676632
88.3806676632
88.3806676632
88.3806676632
88.3806676632
