# vtk DataFile Version 2.0
Results
ASCII
DATASET UNSTRUCTURED_GRID
POINTS         27           float
0.0	0.0	0.0	
50.0	0.0	0.0	
100.0	0.0	0.0	
0.0	40.0	0.0	
50.0	40.0	0.0	
100.0	40.0	0.0	
0.0	80.0	0.0	
50.0	80.0	0.0	
100.0	80.0	0.0	
0.0	0.0	70.0	
50.0	0.0	70.0	
100.0	0.0	70.0	
0.0	40.0	70.0	
50.0	40.0	70.0	
100.0	40.0	70.0	
0.0	80.0	70.0	
50.0	80.0	70.0	
100.0	80.0	70.0	
0.0	0.0	140.0	
50.0	0.0	140.0	
100.0	0.0	140.0	
0.0	40.0	140.0	
50.0	40.0	140.0	
100.0	40.0	140.0	
0.0	80.0	140.0	
50.0	80.0	140.0	
100.0	80.0	140.0	

CELLS	8	72
 8	0	1	4	3	9	10	13	12	
 8	1	2	5	4	10	11	14	13	
 8	4	5	8	7	13	14	17	16	
 8	3	4	7	6	12	13	16	15	
 8	9	10	13	12	18	19	22	21	
 8	10	11	14	13	19	20	23	22	
 8	13	14	17	16	22	23	26	25	
 8	12	13	16	15	21	22	25	24	

CELL_TYPES	8
 12
 12
 12
 12
 12
 12
 12
 12

POINT_DATA	27
SCALARS	u1	float 1
LOOKUP_TABLE	default
0.0
-0.011
-0.023
0.0
-0.011
-0.023
0.0
-0.011
-0.023
0.0
-0.011
-0.023
0.0
-0.011
-0.023
0.0
-0.011
-0.023
0.0
-0.011
-0.023
0.0
-0.011
-0.023
0.0
-0.011
-0.023

SCALARS	u2	float 1
LOOKUP_TABLE	default
0.0
0.0
0.0
-0.009
-0.009
-0.009
-0.018
-0.018
-0.018
0.0
0.0
0.0
-0.009
-0.009
-0.009
-0.018
-0.018
-0.018
0.0
0.0
0.0
-0.009
-0.009
-0.009
-0.018
-0.018
-0.018

SCALARS	u3	float 1
LOOKUP_TABLE	default
0.0
0.0
0.0
0.0
0.0
0.0
0.0
0.0
0.0
0.038
0.038
0.038
0.038
0.038
0.038
0.038
0.038
0.038
0.077
0.077
0.077
0.077
0.077
0.077
0.077
0.077
0.077

SCALARS	u4	float 1
LOOKUP_TABLE	default
299.526
299.526
299.526
299.526
299.526
299.526
299.526
299.526
299.526
299.526
299.526
299.526
299.526
299.526
299.526
299.526
299.526
299.526
299.526
299.526
299.526
299.526
299.526
299.526
299.526
299.526
299.526

VECTORS	u 	float 
0.0	0.0	0.0
-0.0113032358	0.0	0.0
-0.0226064716	0.0	0.0
0.0	-0.0090425887	0.0
-0.0113032358	-0.0090425887	0.0
-0.0226064716	-0.0090425887	0.0
0.0	-0.0180851773	0.0
-0.0113032358	-0.0180851773	0.0
-0.0226064716	-0.0180851773	0.0
0.0	0.0	0.038405089
-0.0113032358	0.0	0.038405089
-0.0226064716	0.0	0.038405089
0.0	-0.0090425887	0.038405089
-0.0113032358	-0.0090425887	0.038405089
-0.0226064716	-0.0090425887	0.038405089
0.0	-0.0180851773	0.038405089
-0.0113032358	-0.0180851773	0.038405089
-0.0226064716	-0.0180851773	0.038405089
0.0	0.0	0.0768101779
-0.0113032358	0.0	0.0768101779
-0.0226064716	0.0	0.0768101779
0.0	-0.0090425887	0.0768101779
-0.0113032358	-0.0090425887	0.0768101779
-0.0226064716	-0.0090425887	0.0768101779
0.0	-0.0180851773	0.0768101779
-0.0113032358	-0.0180851773	0.0768101779
-0.0226064716	-0.0180851773	0.0768101779

VECTORS	v 	float 
0.0	0.0	0.0
-0.0223529106	0.0	0.0
-0.0447058211	0.0	0.0
0.0	-0.0178823284	0.0
-0.0223529106	-0.0178823284	0.0
-0.0447058211	-0.0178823284	0.0
0.0	-0.0357646569	0.0
-0.0223529106	-0.0357646569	0.0
-0.0447058211	-0.0357646569	0.0
-0.0	-0.0	0.076997316
-0.0223529106	-0.0	0.076997316
-0.0447058211	0.0	0.076997316
-0.0	-0.0178823284	0.076997316
-0.0223529106	-0.0178823284	0.076997316
-0.0447058211	-0.0178823284	0.076997316
-0.0	-0.0357646569	0.076997316
-0.0223529106	-0.0357646569	0.076997316
-0.0447058211	-0.0357646569	0.076997316
0.0	0.0	0.1539946319
-0.0223529106	0.0	0.1539946319
-0.0447058211	-0.0	0.1539946319
0.0	-0.0178823284	0.1539946319
-0.0223529106	-0.0178823284	0.1539946319
-0.0447058211	-0.0178823284	0.1539946319
-0.0	-0.0357646569	0.1539946319
-0.0223529106	-0.0357646569	0.1539946319
-0.0447058211	-0.0357646569	0.1539946319

VECTORS	a 	float 
0.0	0.0	0.0
-1.2961281469	0.0	0.0
-2.5922562938	0.0	0.0
0.0	-1.0369025175	0.0
-1.2961281469	-1.0369025175	0.0
-2.5922562938	-1.0369025175	0.0
0.0	-2.0738050351	0.0
-1.2961281469	-2.0738050351	0.0
-2.5922562938	-2.0738050351	0.0
-0.0	0.0	4.4666569795
-1.2961281469	-0.0	4.4666569795
-2.5922562938	0.0	4.4666569795
-0.0	-1.0369025175	4.4666569795
-1.2961281469	-1.0369025175	4.4666569795
-2.5922562938	-1.0369025175	4.4666569795
-0.0	-2.0738050351	4.4666569795
-1.2961281469	-2.0738050351	4.4666569795
-2.5922562938	-2.0738050351	4.4666569795
-0.0	0.0	8.933313959
-1.2961281469	0.0	8.933313959
-2.5922562938	-0.0	8.933313959
-0.0	-1.0369025175	8.933313959
-1.2961281469	-1.0369025175	8.933313959
-2.5922562938	-1.0369025175	8.933313959
-0.0	-2.0738050351	8.933313959
-1.2961281469	-2.0738050351	8.933313959
-2.5922562938	-2.0738050351	8.933313959

SCALARS	theta	float 1
LOOKUP_TABLE	default
299.5256689249
299.5256689249
299.5256689249
299.5256689249
299.5256689249
299.5256689249
299.5256689249
299.5256689249
299.5256689249
299.5256689249
299.5256689249
299.5256689249
299.5256689249
299.5256689249
299.5256689249
299.5256689249
299.5256689249
299.5256689249
299.5256689249
299.5256689249
299.5256689249
299.5256689249
299.5256689249
299.5256689249
299.5256689249
299.5256689249
299.5256689249

SCALARS	sig_11	float	1
LOOKUP_TABLE	default
-2.4e-09
-2.4e-09
-2.4e-09
-2.4e-09
-2.4e-09
-2.4e-09
-2.4e-09
-2.4e-09
-2.4e-09
-2.3e-09
-2.3e-09
-2.4e-09
-2.4e-09
-2.3e-09
-2.4e-09
-2.4e-09
-2.4e-09
-2.4e-09
-2.3e-09
-2.3e-09
-2.4e-09
-2.4e-09
-2.3e-09
-2.4e-09
-2.4e-09
-2.4e-09
-2.4e-09

SCALARS	sig_22	float	1
LOOKUP_TABLE	default
-2.4e-09
-2.4e-09
-2.4e-09
-2.4e-09
-2.4e-09
-2.4e-09
-2.4e-09
-2.4e-09
-2.4e-09
-2.3e-09
-2.3e-09
-2.4e-09
-2.4e-09
-2.3e-09
-2.4e-09
-2.4e-09
-2.4e-09
-2.4e-09
-2.3e-09
-2.3e-09
-2.4e-09
-2.4e-09
-2.3e-09
-2.4e-09
-2.4e-09
-2.4e-09
-2.4e-09

SCALARS	sig_33	float	1
LOOKUP_TABLE	default
124.9879420626
124.9879420626
124.9879420626
124.9879420626
124.9879420626
124.9879420626
124.9879420626
124.9879420626
124.9879420626
124.9879420626
124.9879420626
124.9879420626
124.9879420626
124.9879420626
124.9879420626
124.9879420626
124.9879420626
124.9879420626
124.9879420626
124.9879420626
124.9879420626
124.9879420626
124.9879420626
124.9879420626
124.9879420626
124.9879420626
124.9879420626

SCALARS vonMises	float	1
LOOKUP_TABLE	default
88.3798214007
88.3798214007
88.3798214007
88.3798214007
88.3798214007
88.3798214007
88.3798214007
88.3798214007
88.3798214007
88.3798214007
88.3798214007
88.3798214007
88.3798214007
88.3798214007
88.3798214007
88.3798214007
88.3798214007
88.3798214007
88.3798214007
88.3798214007
88.3798214007
88.3798214007
88.3798214007
88.3798214007
88.3798214007
88.3798214007
88.3798214007
