# vtk DataFile Version 2.0
Results
ASCII
DATASET UNSTRUCTURED_GRID
POINTS         27           float
0.0	0.0	0.0	
50.0	0.0	0.0	
100.0	0.0	0.0	
0.0	40.0	0.0	
50.0	40.0	0.0	
100.0	40.0	0.0	
0.0	80.0	0.0	
50.0	80.0	0.0	
100.0	80.0	0.0	
0.0	0.0	70.0	
50.0	0.0	70.0	
100.0	0.0	70.0	
0.0	40.0	70.0	
50.0	40.0	70.0	
100.0	40.0	70.0	
0.0	80.0	70.0	
50.0	80.0	70.0	
100.0	80.0	70.0	
0.0	0.0	140.0	
50.0	0.0	140.0	
100.0	0.0	140.0	
0.0	40.0	140.0	
50.0	40.0	140.0	
100.0	40.0	140.0	
0.0	80.0	140.0	
50.0	80.0	140.0	
100.0	80.0	140.0	

CELLS	8	72
 8	0	1	4	3	9	10	13	12	
 8	1	2	5	4	10	11	14	13	
 8	4	5	8	7	13	14	17	16	
 8	3	4	7	6	12	13	16	15	
 8	9	10	13	12	18	19	22	21	
 8	10	11	14	13	19	20	23	22	
 8	13	14	17	16	22	23	26	25	
 8	12	13	16	15	21	22	25	24	

CELL_TYPES	8
 12
 12
 12
 12
 12
 12
 12
 12

POINT_DATA	27
SCALARS	u1	float 1
LOOKUP_TABLE	default
0.0
-0.012
-0.023
0.0
-0.012
-0.023
0.0
-0.012
-0.023
-0.0
-0.012
-0.023
0.0
-0.012
-0.023
0.0
-0.012
-0.023
-0.0
-0.012
-0.023
0.0
-0.012
-0.023
0.0
-0.012
-0.023

SCALARS	u2	float 1
LOOKUP_TABLE	default
0.0
0.0
0.0
-0.009
-0.009
-0.009
-0.019
-0.019
-0.019
-0.0
-0.0
0.0
-0.009
-0.009
-0.009
-0.019
-0.019
-0.019
0.0
0.0
-0.0
-0.009
-0.009
-0.009
-0.019
-0.019
-0.019

SCALARS	u3	float 1
LOOKUP_TABLE	default
0.0
0.0
0.0
0.0
0.0
0.0
0.0
0.0
0.0
0.038
0.038
0.038
0.038
0.038
0.038
0.038
0.038
0.038
0.076
0.076
0.076
0.076
0.076
0.076
0.076
0.076
0.076

SCALARS	u4	float 1
LOOKUP_TABLE	default
299.441
299.441
299.441
299.441
299.441
299.441
299.441
299.441
299.441
299.441
299.441
299.441
299.441
299.441
299.441
299.441
299.441
299.441
299.441
299.441
299.441
299.441
299.441
299.441
299.441
299.441
299.441

VECTORS	u 	float 
0.0	0.0	0.0
-0.0117289684	0.0	0.0
-0.0234579368	0.0	0.0
0.0	-0.0093831747	0.0
-0.0117289684	-0.0093831747	0.0
-0.0234579368	-0.0093831747	0.0
0.0	-0.0187663494	0.0
-0.0117289684	-0.0187663494	0.0
-0.0234579368	-0.0187663494	0.0
-0.0	-0.0	0.0378090643
-0.0117289684	-0.0	0.0378090643
-0.0234579368	0.0	0.0378090643
0.0	-0.0093831747	0.0378090643
-0.0117289684	-0.0093831747	0.0378090643
-0.0234579368	-0.0093831747	0.0378090643
0.0	-0.0187663494	0.0378090643
-0.0117289684	-0.0187663494	0.0378090643
-0.0234579368	-0.0187663494	0.0378090643
-0.0	0.0	0.0756181285
-0.0117289684	0.0	0.0756181285
-0.0234579368	-0.0	0.0756181285
0.0	-0.0093831747	0.0756181285
-0.0117289684	-0.0093831747	0.0756181285
-0.0234579368	-0.0093831747	0.0756181285
0.0	-0.0187663494	0.0756181285
-0.0117289684	-0.0187663494	0.0756181285
-0.0234579368	-0.0187663494	0.0756181285

VECTORS	v 	float 
0.0	0.0	0.0
-0.0223523743	0.0	0.0
-0.0447047485	0.0	0.0
0.0	-0.0178818994	0.0
-0.0223523743	-0.0178818994	0.0
-0.0447047485	-0.0178818994	0.0
0.0	-0.0357637988	0.0
-0.0223523743	-0.0357637988	0.0
-0.0447047485	-0.0357637988	0.0
-0.0	-0.0	0.0769980686
-0.0223523743	-0.0	0.0769980686
-0.0447047485	-0.0	0.0769980686
0.0	-0.0178818994	0.0769980686
-0.0223523743	-0.0178818994	0.0769980686
-0.0447047485	-0.0178818994	0.0769980686
0.0	-0.0357637988	0.0769980686
-0.0223523743	-0.0357637988	0.0769980686
-0.0447047485	-0.0357637988	0.0769980686
-0.0	0.0	0.1539961372
-0.0223523743	-0.0	0.1539961372
-0.0447047485	-0.0	0.1539961372
-0.0	-0.0178818994	0.1539961372
-0.0223523743	-0.0178818994	0.1539961372
-0.0447047485	-0.0178818994	0.1539961372
0.0	-0.0357637988	0.1539961372
-0.0223523743	-0.0357637988	0.1539961372
-0.0447047485	-0.0357637988	0.1539961372

VECTORS	a 	float 
0.0	0.0	0.0
-6.3014175304	0.0	0.0
-12.6028350609	0.0	0.0
0.0	-5.0411340243	0.0
-6.3014175304	-5.0411340243	0.0
-12.6028350609	-5.0411340243	0.0
0.0	-10.0822680487	0.0
-6.3014175304	-10.0822680487	0.0
-12.6028350608	-10.0822680487	0.0
-0.0	0.0	21.7165254138
-6.3014175304	-0.0	21.7165254138
-12.6028350608	-0.0	21.7165254138
0.0	-5.0411340243	21.7165254138
-6.3014175304	-5.0411340243	21.7165254138
-12.6028350608	-5.0411340243	21.7165254138
0.0	-10.0822680487	21.7165254138
-6.3014175304	-10.0822680487	21.7165254138
-12.6028350609	-10.0822680487	21.7165254138
-0.0	0.0	43.4330508276
-6.3014175304	0.0	43.4330508276
-12.6028350609	-0.0	43.4330508276
-0.0	-5.0411340243	43.4330508276
-6.3014175304	-5.0411340243	43.4330508276
-12.6028350609	-5.0411340243	43.4330508276
-0.0	-10.0822680487	43.4330508276
-6.3014175304	-10.0822680487	43.4330508276
-12.6028350609	-10.0822680487	43.4330508276

SCALARS	theta	float 1
LOOKUP_TABLE	default
299.4405213015
299.4405213015
299.4405213015
299.4405213015
299.4405213015
299.4405213015
299.4405213015
299.4405213015
299.4405213015
299.4405213015
299.4405213015
299.4405213015
299.4405213015
299.4405213015
299.4405213015
299.4405213015
299.4405213015
299.4405213015
299.4405213015
299.4405213015
299.4405213015
299.4405213015
299.4405213015
299.4405213015
299.4405213015
299.4405213015
299.4405213015

SCALARS	sig_11	float	1
LOOKUP_TABLE	default
-2.3e-09
-2.3e-09
-2.3e-09
-2.3e-09
-2.3e-09
-2.3e-09
-2.4e-09
-2.3e-09
-2.3e-09
-2.4e-09
-2.3e-09
-2.3e-09
-2.3e-09
-2.3e-09
-2.3e-09
-2.3e-09
-2.3e-09
-2.3e-09
-2.3e-09
-2.3e-09
-2.3e-09
-2.3e-09
-2.3e-09
-2.3e-09
-2.3e-09
-2.3e-09
-2.3e-09

SCALARS	sig_22	float	1
LOOKUP_TABLE	default
-2.3e-09
-2.3e-09
-2.3e-09
-2.3e-09
-2.3e-09
-2.3e-09
-2.4e-09
-2.3e-09
-2.3e-09
-2.4e-09
-2.3e-09
-2.3e-09
-2.3e-09
-2.3e-09
-2.3e-09
-2.3e-09
-2.3e-09
-2.3e-09
-2.3e-09
-2.3e-09
-2.3e-09
-2.3e-09
-2.3e-09
-2.3e-09
-2.3e-09
-2.3e-09
-2.3e-09

SCALARS	sig_33	float	1
LOOKUP_TABLE	default
124.991133548
124.991133548
124.991133548
124.991133548
124.991133548
124.991133548
124.991133548
124.9911335481
124.991133548
124.991133548
124.991133548
124.991133548
124.991133548
124.991133548
124.991133548
124.9911335481
124.9911335481
124.991133548
124.991133548
124.991133548
124.9911335481
124.991133548
124.9911335481
124.9911335481
124.9911335481
124.9911335481
124.9911335481

SCALARS vonMises	float	1
LOOKUP_TABLE	default
88.3820781217
88.3820781217
88.3820781217
88.3820781217
88.3820781217
88.3820781217
88.3820781217
88.3820781217
88.3820781217
88.3820781217
88.3820781217
88.3820781217
88.3820781217
88.3820781217
88.3820781217
88.3820781217
88.3820781217
88.3820781217
88.3820781217
88.3820781217
88.3820781217
88.3820781217
88.3820781217
88.3820781217
88.3820781217
88.3820781217
88.3820781217
