# vtk DataFile Version 2.0
Results
ASCII
DATASET UNSTRUCTURED_GRID
POINTS         27           float
0.0	0.0	0.0	
50.0	0.0	0.0	
100.0	0.0	0.0	
0.0	40.0	0.0	
50.0	40.0	0.0	
100.0	40.0	0.0	
0.0	80.0	0.0	
50.0	80.0	0.0	
100.0	80.0	0.0	
0.0	0.0	70.0	
50.0	0.0	70.0	
100.0	0.0	70.0	
0.0	40.0	70.0	
50.0	40.0	70.0	
100.0	40.0	70.0	
0.0	80.0	70.0	
50.0	80.0	70.0	
100.0	80.0	70.0	
0.0	0.0	140.0	
50.0	0.0	140.0	
100.0	0.0	140.0	
0.0	40.0	140.0	
50.0	40.0	140.0	
100.0	40.0	140.0	
0.0	80.0	140.0	
50.0	80.0	140.0	
100.0	80.0	140.0	

CELLS	8	72
 8	0	1	4	3	9	10	13	12	
 8	1	2	5	4	10	11	14	13	
 8	4	5	8	7	13	14	17	16	
 8	3	4	7	6	12	13	16	15	
 8	9	10	13	12	18	19	22	21	
 8	10	11	14	13	19	20	23	22	
 8	13	14	17	16	22	23	26	25	
 8	12	13	16	15	21	22	25	24	

CELL_TYPES	8
 12
 12
 12
 12
 12
 12
 12
 12

POINT_DATA	27
SCALARS	u1	float 1
LOOKUP_TABLE	default
0.0
-0.011
-0.022
0.0
-0.011
-0.022
0.0
-0.011
-0.022
0.0
-0.011
-0.022
0.0
-0.011
-0.022
0.0
-0.011
-0.022
0.0
-0.011
-0.022
0.0
-0.011
-0.022
0.0
-0.011
-0.022

SCALARS	u2	float 1
LOOKUP_TABLE	default
0.0
0.0
0.0
-0.009
-0.009
-0.009
-0.018
-0.018
-0.018
0.0
-0.0
-0.0
-0.009
-0.009
-0.009
-0.018
-0.018
-0.018
-0.0
-0.0
-0.0
-0.009
-0.009
-0.009
-0.018
-0.018
-0.018

SCALARS	u3	float 1
LOOKUP_TABLE	default
0.0
0.0
0.0
0.0
0.0
0.0
0.0
0.0
0.0
0.039
0.039
0.039
0.039
0.039
0.039
0.039
0.039
0.039
0.077
0.077
0.077
0.077
0.077
0.077
0.077
0.077
0.077

SCALARS	u4	float 1
LOOKUP_TABLE	default
299.545
299.545
299.545
299.545
299.545
299.545
299.545
299.545
299.545
299.545
299.545
299.545
299.545
299.545
299.545
299.545
299.545
299.545
299.545
299.545
299.545
299.545
299.545
299.545
299.545
299.545
299.545

VECTORS	u 	float 
0.0	0.0	0.0
-0.0112043923	0.0	0.0
-0.0224087846	0.0	0.0
0.0	-0.0089635138	0.0
-0.0112043923	-0.0089635138	0.0
-0.0224087846	-0.0089635138	0.0
0.0	-0.0179270277	0.0
-0.0112043923	-0.0179270277	0.0
-0.0224087846	-0.0179270277	0.0
0.0	0.0	0.0385434356
-0.0112043923	-0.0	0.0385434356
-0.0224087846	-0.0	0.0385434356
0.0	-0.0089635138	0.0385434356
-0.0112043923	-0.0089635138	0.0385434356
-0.0224087846	-0.0089635138	0.0385434356
0.0	-0.0179270277	0.0385434356
-0.0112043923	-0.0179270277	0.0385434356
-0.0224087846	-0.0179270277	0.0385434356
0.0	-0.0	0.0770868711
-0.0112043923	-0.0	0.0770868711
-0.0224087846	-0.0	0.0770868711
0.0	-0.0089635138	0.0770868711
-0.0112043923	-0.0089635138	0.0770868711
-0.0224087846	-0.0089635138	0.0770868711
0.0	-0.0179270277	0.0770868711
-0.0112043923	-0.0179270277	0.0770868711
-0.0224087846	-0.0179270277	0.0770868711

VECTORS	v 	float 
0.0	0.0	0.0
0.0223378108	0.0	0.0
0.0446756216	0.0	0.0
0.0	0.0178702486	0.0
0.0223378108	0.0178702486	0.0
0.0446756216	0.0178702486	0.0
0.0	0.0357404973	0.0
0.0223378108	0.0357404973	0.0
0.0446756216	0.0357404973	0.0
0.0	-0.0	-0.0770184035
0.0223378108	0.0	-0.0770184035
0.0446756216	-0.0	-0.0770184035
0.0	0.0178702486	-0.0770184035
0.0223378108	0.0178702486	-0.0770184035
0.0446756216	0.0178702486	-0.0770184035
-0.0	0.0357404973	-0.0770184035
0.0223378108	0.0357404973	-0.0770184035
0.0446756216	0.0357404973	-0.0770184035
0.0	-0.0	-0.154036807
0.0223378108	0.0	-0.154036807
0.0446756216	0.0	-0.154036807
0.0	0.0178702486	-0.154036807
0.0223378108	0.0178702486	-0.154036807
0.0446756216	0.0178702486	-0.154036807
0.0	0.0357404973	-0.154036807
0.0223378108	0.0357404973	-0.154036807
0.0446756216	0.0357404973	-0.154036807

VECTORS	a 	float 
0.0	0.0	0.0
0.1341688588	0.0	0.0
0.2683377176	0.0	0.0
0.0	0.107335087	0.0
0.1341688588	0.107335087	0.0
0.2683377176	0.107335087	0.0
0.0	0.2146701741	0.0
0.1341688588	0.2146701741	0.0
0.2683377176	0.2146701741	0.0
0.0	-0.0	-0.4622473837
0.1341688588	0.0	-0.4622473837
0.2683377176	-0.0	-0.4622473837
0.0	0.107335087	-0.4622473837
0.1341688588	0.107335087	-0.4622473837
0.2683377176	0.107335087	-0.4622473837
0.0	0.2146701741	-0.4622473837
0.1341688588	0.2146701741	-0.4622473837
0.2683377176	0.2146701741	-0.4622473837
0.0	-0.0	-0.9244947675
0.1341688588	0.0	-0.9244947675
0.2683377176	0.0	-0.9244947675
0.0	0.107335087	-0.9244947675
0.1341688588	0.107335087	-0.9244947675
0.2683377176	0.107335087	-0.9244947675
0.0	0.2146701741	-0.9244947675
0.1341688588	0.2146701741	-0.9244947675
0.2683377176	0.2146701741	-0.9244947675

SCALARS	theta	float 1
LOOKUP_TABLE	default
299.5454373698
299.5454373698
299.5454373698
299.5454373698
299.5454373698
299.5454373698
299.5454373698
299.5454373698
299.5454373698
299.5454373698
299.5454373698
299.5454373698
299.5454373698
299.5454373698
299.5454373698
299.5454373698
299.5454373698
299.5454373698
299.5454373698
299.5454373698
299.5454373698
299.5454373698
299.5454373698
299.5454373698
299.5454373698
299.5454373698
299.5454373698

SCALARS	sig_11	float	1
LOOKUP_TABLE	default
3.17e-08
3.17e-08
3.17e-08
3.17e-08
3.17e-08
3.17e-08
3.17e-08
3.17e-08
3.17e-08
3.17e-08
3.17e-08
3.17e-08
3.17e-08
3.17e-08
3.17e-08
3.17e-08
3.17e-08
3.17e-08
3.17e-08
3.17e-08
3.17e-08
3.17e-08
3.17e-08
3.17e-08
3.17e-08
3.17e-08
3.17e-08

SCALARS	sig_22	float	1
LOOKUP_TABLE	default
3.17e-08
3.17e-08
3.17e-08
3.17e-08
3.17e-08
3.17e-08
3.17e-08
3.17e-08
3.17e-08
3.17e-08
3.17e-08
3.17e-08
3.17e-08
3.17e-08
3.17e-08
3.17e-08
3.17e-08
3.17e-08
3.17e-08
3.17e-08
3.17e-08
3.17e-08
3.17e-08
3.17e-08
3.17e-08
3.17e-08
3.17e-08

SCALARS	sig_33	float	1
LOOKUP_TABLE	default
124.9871998548
124.9871998548
124.9871998548
124.9871998548
124.9871998548
124.9871998548
124.9871998548
124.9871998548
124.9871998548
124.9871998548
124.9871998548
124.9871998548
124.9871998548
124.9871998548
124.9871998548
124.9871998548
124.9871998548
124.9871998548
124.9871998548
124.9871998548
124.9871998548
124.9871998548
124.9871998548
124.9871998548
124.9871998548
124.9871998548
124.9871998548

SCALARS vonMises	float	1
LOOKUP_TABLE	default
88.3792965564
88.3792965564
88.3792965564
88.3792965564
88.3792965564
88.3792965564
88.3792965564
88.3792965564
88.3792965564
88.3792965564
88.3792965564
88.3792965564
88.3792965564
88.3792965564
88.3792965564
88.3792965564
88.3792965564
88.3792965564
88.3792965564
88.3792965564
88.3792965564
88.3792965564
88.3792965564
88.3792965564
88.3792965564
88.3792965564
88.3792965564
