# vtk DataFile Version 2.0
Results
ASCII
DATASET UNSTRUCTURED_GRID
POINTS         27           float
0.0	0.0	0.0	
50.0	0.0	0.0	
100.0	0.0	0.0	
0.0	40.0	0.0	
50.0	40.0	0.0	
100.0	40.0	0.0	
0.0	80.0	0.0	
50.0	80.0	0.0	
100.0	80.0	0.0	
0.0	0.0	70.0	
50.0	0.0	70.0	
100.0	0.0	70.0	
0.0	40.0	70.0	
50.0	40.0	70.0	
100.0	40.0	70.0	
0.0	80.0	70.0	
50.0	80.0	70.0	
100.0	80.0	70.0	
0.0	0.0	140.0	
50.0	0.0	140.0	
100.0	0.0	140.0	
0.0	40.0	140.0	
50.0	40.0	140.0	
100.0	40.0	140.0	
0.0	80.0	140.0	
50.0	80.0	140.0	
100.0	80.0	140.0	

CELLS	8	72
 8	0	1	4	3	9	10	13	12	
 8	1	2	5	4	10	11	14	13	
 8	4	5	8	7	13	14	17	16	
 8	3	4	7	6	12	13	16	15	
 8	9	10	13	12	18	19	22	21	
 8	10	11	14	13	19	20	23	22	
 8	13	14	17	16	22	23	26	25	
 8	12	13	16	15	21	22	25	24	

CELL_TYPES	8
 12
 12
 12
 12
 12
 12
 12
 12

POINT_DATA	27
SCALARS	u1	float 1
LOOKUP_TABLE	default
0.0
-0.012
-0.023
0.0
-0.012
-0.023
0.0
-0.012
-0.023
-0.0
-0.012
-0.023
-0.0
-0.012
-0.023
-0.0
-0.012
-0.023
-0.0
-0.012
-0.023
-0.0
-0.012
-0.023
-0.0
-0.012
-0.023

SCALARS	u2	float 1
LOOKUP_TABLE	default
0.0
0.0
0.0
-0.009
-0.009
-0.009
-0.019
-0.019
-0.019
0.0
0.0
-0.0
-0.009
-0.009
-0.009
-0.019
-0.019
-0.019
0.0
0.0
-0.0
-0.009
-0.009
-0.009
-0.019
-0.019
-0.019

SCALARS	u3	float 1
LOOKUP_TABLE	default
0.0
0.0
0.0
0.0
0.0
0.0
0.0
0.0
0.0
0.038
0.038
0.038
0.038
0.038
0.038
0.038
0.038
0.038
0.076
0.076
0.076
0.076
0.076
0.076
0.076
0.076
0.076

SCALARS	u4	float 1
LOOKUP_TABLE	default
299.442
299.442
299.442
299.442
299.442
299.442
299.442
299.442
299.442
299.442
299.442
299.442
299.442
299.442
299.442
299.442
299.442
299.442
299.442
299.442
299.442
299.442
299.442
299.442
299.442
299.442
299.442

VECTORS	u 	float 
0.0	0.0	0.0
-0.0117213715	0.0	0.0
-0.023442743	0.0	0.0
0.0	-0.0093770972	0.0
-0.0117213715	-0.0093770972	0.0
-0.023442743	-0.0093770972	0.0
0.0	-0.0187541944	0.0
-0.0117213715	-0.0187541944	0.0
-0.023442743	-0.0187541944	0.0
-0.0	0.0	0.0378196999
-0.0117213715	0.0	0.0378196999
-0.023442743	-0.0	0.0378196999
-0.0	-0.0093770972	0.0378196999
-0.0117213715	-0.0093770972	0.0378196999
-0.023442743	-0.0093770972	0.0378196999
-0.0	-0.0187541944	0.0378196999
-0.0117213715	-0.0187541944	0.0378196999
-0.023442743	-0.0187541944	0.0378196999
-0.0	0.0	0.0756393997
-0.0117213715	0.0	0.0756393997
-0.023442743	-0.0	0.0756393997
-0.0	-0.0093770972	0.0756393997
-0.0117213715	-0.0093770972	0.0756393997
-0.023442743	-0.0093770972	0.0756393997
-0.0	-0.0187541944	0.0756393997
-0.0117213715	-0.0187541944	0.0756393997
-0.023442743	-0.0187541944	0.0756393997

VECTORS	v 	float 
0.0	0.0	0.0
0.0223371836	0.0	0.0
0.0446743671	0.0	0.0
0.0	0.0178697469	0.0
0.0223371836	0.0178697469	0.0
0.0446743671	0.0178697469	0.0
0.0	0.0357394937	0.0
0.0223371836	0.0357394937	0.0
0.0446743671	0.0357394937	0.0
0.0	0.0	-0.077019352
0.0223371836	0.0	-0.077019352
0.0446743671	0.0	-0.077019352
-0.0	0.0178697469	-0.077019352
0.0223371836	0.0178697469	-0.077019352
0.0446743671	0.0178697469	-0.077019352
-0.0	0.0357394937	-0.077019352
0.0223371836	0.0357394937	-0.077019352
0.0446743671	0.0357394937	-0.077019352
0.0	-0.0	-0.154038704
0.0223371836	0.0	-0.154038704
0.0446743671	0.0	-0.154038704
0.0	0.0178697469	-0.154038704
0.0223371836	0.0178697469	-0.154038704
0.0446743671	0.0178697469	-0.154038704
0.0	0.0357394937	-0.154038704
0.0223371836	0.0357394937	-0.154038704
0.0446743671	0.0357394937	-0.154038704

VECTORS	a 	float 
0.0	0.0	0.0
6.2120384148	0.0	0.0
12.4240768296	0.0	0.0
0.0	4.9696307318	0.0
6.2120384148	4.9696307318	0.0
12.4240768296	4.9696307318	0.0
0.0	9.9392614636	0.0
6.2120384148	9.9392614636	0.0
12.4240768296	9.9392614636	0.0
0.0	-0.0	-21.4084905726
6.2120384148	0.0	-21.4084905726
12.4240768296	0.0	-21.4084905726
-0.0	4.9696307318	-21.4084905726
6.2120384148	4.9696307318	-21.4084905726
12.4240768296	4.9696307318	-21.4084905726
-0.0	9.9392614636	-21.4084905726
6.2120384148	9.9392614636	-21.4084905726
12.4240768296	9.9392614636	-21.4084905726
0.0	-0.0	-42.8169811453
6.2120384148	-0.0	-42.8169811453
12.4240768296	0.0	-42.8169811453
0.0	4.9696307318	-42.8169811453
6.2120384148	4.9696307318	-42.8169811453
12.4240768296	4.9696307318	-42.8169811453
0.0	9.9392614636	-42.8169811453
6.2120384148	9.9392614636	-42.8169811453
12.4240768296	9.9392614636	-42.8169811453

SCALARS	theta	float 1
LOOKUP_TABLE	default
299.4420407102
299.4420407102
299.4420407102
299.4420407102
299.4420407102
299.4420407102
299.4420407102
299.4420407102
299.4420407102
299.4420407102
299.4420407102
299.4420407102
299.4420407102
299.4420407102
299.4420407102
299.4420407102
299.4420407102
299.4420407102
299.4420407102
299.4420407102
299.4420407102
299.4420407102
299.4420407102
299.4420407102
299.4420407102
299.4420407102
299.4420407102

SCALARS	sig_11	float	1
LOOKUP_TABLE	default
-2.3e-09
-2.3e-09
-2.3e-09
-2.3e-09
-2.3e-09
-2.3e-09
-2.3e-09
-2.3e-09
-2.3e-09
-2.3e-09
-2.3e-09
-2.3e-09
-2.3e-09
-2.3e-09
-2.3e-09
-2.4e-09
-2.3e-09
-2.3e-09
-2.3e-09
-2.3e-09
-2.3e-09
-2.3e-09
-2.3e-09
-2.3e-09
-2.4e-09
-2.3e-09
-2.3e-09

SCALARS	sig_22	float	1
LOOKUP_TABLE	default
-2.3e-09
-2.3e-09
-2.3e-09
-2.3e-09
-2.3e-09
-2.3e-09
-2.3e-09
-2.3e-09
-2.3e-09
-2.3e-09
-2.3e-09
-2.3e-09
-2.3e-09
-2.3e-09
-2.3e-09
-2.3e-09
-2.3e-09
-2.3e-09
-2.3e-09
-2.3e-09
-2.3e-09
-2.3e-09
-2.3e-09
-2.3e-09
-2.4e-09
-2.3e-09
-2.3e-09

SCALARS	sig_33	float	1
LOOKUP_TABLE	default
124.9910765212
124.9910765212
124.9910765212
124.9910765212
124.9910765212
124.9910765212
124.9910765212
124.9910765212
124.9910765212
124.9910765212
124.9910765212
124.9910765212
124.9910765212
124.9910765212
124.9910765212
124.9910765211
124.9910765212
124.9910765212
124.9910765212
124.9910765212
124.9910765212
124.9910765212
124.9910765212
124.9910765212
124.9910765211
124.9910765212
124.9910765212

SCALARS vonMises	float	1
LOOKUP_TABLE	default
88.3820377976
88.3820377976
88.3820377976
88.3820377976
88.3820377976
88.3820377976
88.3820377976
88.3820377976
88.3820377976
88.3820377976
88.3820377976
88.3820377976
88.3820377976
88.3820377976
88.3820377976
88.3820377976
88.3820377976
88.3820377976
88.3820377976
88.3820377976
88.3820377976
88.3820377976
88.3820377976
88.3820377976
88.3820377976
88.3820377976
88.3820377976
