# vtk DataFile Version 2.0
Results
ASCII
DATASET UNSTRUCTURED_GRID
POINTS         27           float
0.0	0.0	0.0	
50.0	0.0	0.0	
100.0	0.0	0.0	
0.0	40.0	0.0	
50.0	40.0	0.0	
100.0	40.0	0.0	
0.0	80.0	0.0	
50.0	80.0	0.0	
100.0	80.0	0.0	
0.0	0.0	70.0	
50.0	0.0	70.0	
100.0	0.0	70.0	
0.0	40.0	70.0	
50.0	40.0	70.0	
100.0	40.0	70.0	
0.0	80.0	70.0	
50.0	80.0	70.0	
100.0	80.0	70.0	
0.0	0.0	140.0	
50.0	0.0	140.0	
100.0	0.0	140.0	
0.0	40.0	140.0	
50.0	40.0	140.0	
100.0	40.0	140.0	
0.0	80.0	140.0	
50.0	80.0	140.0	
100.0	80.0	140.0	

CELLS	8	72
 8	0	1	4	3	9	10	13	12	
 8	1	2	5	4	10	11	14	13	
 8	4	5	8	7	13	14	17	16	
 8	3	4	7	6	12	13	16	15	
 8	9	10	13	12	18	19	22	21	
 8	10	11	14	13	19	20	23	22	
 8	13	14	17	16	22	23	26	25	
 8	12	13	16	15	21	22	25	24	

CELL_TYPES	8
 12
 12
 12
 12
 12
 12
 12
 12

POINT_DATA	27
SCALARS	u1	float 1
LOOKUP_TABLE	default
0.0
-0.001
-0.002
0.0
-0.001
-0.002
0.0
-0.001
-0.002
0.0
-0.001
-0.002
0.0
-0.001
-0.002
0.0
-0.001
-0.002
0.0
-0.001
-0.002
0.0
-0.001
-0.002
0.0
-0.001
-0.002

SCALARS	u2	float 1
LOOKUP_TABLE	default
0.0
0.0
0.0
-0.001
-0.001
-0.001
-0.001
-0.001
-0.001
0.0
0.0
0.0
-0.001
-0.001
-0.001
-0.001
-0.001
-0.001
0.0
0.0
0.0
-0.001
-0.001
-0.001
-0.001
-0.001
-0.001

SCALARS	u3	float 1
LOOKUP_TABLE	default
0.0
0.0
0.0
0.0
0.0
0.0
0.0
0.0
0.0
-0.001
-0.001
-0.001
-0.001
-0.001
-0.001
-0.001
-0.001
-0.001
-0.002
-0.002
-0.002
-0.002
-0.002
-0.002
-0.002
-0.002
-0.002

SCALARS	u4	float 1
LOOKUP_TABLE	default
299.846
299.846
299.846
299.846
299.846
299.846
299.846
299.846
299.846
299.846
299.846
299.846
299.846
299.846
299.846
299.846
299.846
299.846
299.846
299.846
299.846
299.846
299.846
299.846
299.846
299.846
299.846

VECTORS	u 	float 
0.0	0.0	0.0
-0.0007683532	0.0	0.0
-0.0015367063	0.0	0.0
0.0	-0.0006146825	0.0
-0.0007683532	-0.0006146825	0.0
-0.0015367063	-0.0006146825	0.0
0.0	-0.0012293651	0.0
-0.0007683532	-0.0012293651	0.0
-0.0015367063	-0.0012293651	0.0
0.0	0.0	-0.0010756944
-0.0007683532	0.0	-0.0010756944
-0.0015367063	0.0	-0.0010756944
0.0	-0.0006146825	-0.0010756944
-0.0007683532	-0.0006146825	-0.0010756944
-0.0015367063	-0.0006146825	-0.0010756944
0.0	-0.0012293651	-0.0010756944
-0.0007683532	-0.0012293651	-0.0010756944
-0.0015367063	-0.0012293651	-0.0010756944
0.0	0.0	-0.0021513889
-0.0007683532	0.0	-0.0021513889
-0.0015367063	0.0	-0.0021513889
0.0	-0.0006146825	-0.0021513889
-0.0007683532	-0.0006146825	-0.0021513889
-0.0015367063	-0.0006146825	-0.0021513889
0.0	-0.0012293651	-0.0021513889
-0.0007683532	-0.0012293651	-0.0021513889
-0.0015367063	-0.0012293651	-0.0021513889

VECTORS	v 	float 
0.0	0.0	0.0
2.56203e-05	0.0	0.0
5.12405e-05	0.0	0.0
0.0	2.04962e-05	0.0
2.56203e-05	2.04962e-05	0.0
5.12405e-05	2.04962e-05	0.0
0.0	4.09924e-05	0.0
2.56203e-05	4.09924e-05	0.0
5.12405e-05	4.09924e-05	0.0
-0.0	0.0	-0.0001336294
2.56203e-05	-0.0	-0.0001336294
5.12405e-05	0.0	-0.0001336294
0.0	2.04962e-05	-0.0001336294
2.56203e-05	2.04962e-05	-0.0001336294
5.12405e-05	2.04962e-05	-0.0001336294
0.0	4.09924e-05	-0.0001336294
2.56203e-05	4.09924e-05	-0.0001336294
5.12405e-05	4.09924e-05	-0.0001336294
-0.0	0.0	-0.0002672588
2.56203e-05	0.0	-0.0002672588
5.12405e-05	-0.0	-0.0002672588
-0.0	2.04962e-05	-0.0002672588
2.56203e-05	2.04962e-05	-0.0002672588
5.12405e-05	2.04962e-05	-0.0002672588
-0.0	4.09924e-05	-0.0002672588
2.56203e-05	4.09924e-05	-0.0002672588
5.12405e-05	4.09924e-05	-0.0002672588

VECTORS	a 	float 
0.0	0.0	0.0
-8.9220307497	0.0	0.0
-17.8440614995	0.0	0.0
0.0	-7.1376245998	0.0
-8.9220307497	-7.1376245998	0.0
-17.8440614995	-7.1376245998	0.0
0.0	-14.2752491996	0.0
-8.9220307497	-14.2752491995	0.0
-17.8440614994	-14.2752491996	0.0
-0.0	0.0	30.7199466631
-8.9220307497	-0.0	30.7199466631
-17.8440614995	0.0	30.7199466631
0.0	-7.1376245998	30.7199466631
-8.9220307497	-7.1376245998	30.7199466631
-17.8440614995	-7.1376245998	30.7199466632
0.0	-14.2752491995	30.7199466631
-8.9220307497	-14.2752491996	30.7199466631
-17.8440614995	-14.2752491996	30.7199466631
-1e-10	1e-10	61.4398933262
-8.9220307498	0.0	61.4398933263
-17.8440614996	-0.0	61.4398933263
-0.0	-7.1376245997	61.4398933262
-8.9220307498	-7.1376245998	61.4398933263
-17.8440614995	-7.1376245998	61.4398933263
-0.0	-14.2752491995	61.4398933262
-8.9220307498	-14.2752491995	61.4398933262
-17.8440614996	-14.2752491995	61.4398933263

SCALARS	theta	float 1
LOOKUP_TABLE	default
299.8463265519
299.8463265519
299.8463265519
299.8463265519
299.8463265519
299.8463265519
299.8463265519
299.8463265519
299.8463265519
299.8463265519
299.8463265519
299.8463265519
299.8463265519
299.8463265519
299.8463265519
299.8463265519
299.8463265519
299.8463265519
299.8463265519
299.8463265519
299.8463265519
299.8463265519
299.8463265519
299.8463265519
299.8463265519
299.8463265519
299.8463265519

SCALARS	sig_11	float	1
LOOKUP_TABLE	default
-1e-09
-1e-09
-1e-09
-1e-09
-1e-09
-1e-09
-1e-09
-1e-09
-1e-09
-1e-09
-1e-09
-1e-09
-1e-09
-1e-09
-1e-09
-1e-09
-1e-09
-1e-09
-1e-09
-1e-09
-1e-09
-1e-09
-1e-09
-1e-09
-1e-09
-1e-09
-1e-09

SCALARS	sig_22	float	1
LOOKUP_TABLE	default
-1e-09
-1e-09
-1e-09
-1e-09
-1e-09
-1e-09
-1e-09
-1e-09
-1e-09
-1e-09
-1e-09
-1e-09
-1e-09
-1e-09
-1e-09
-1e-09
-1e-09
-1e-09
-1e-09
-1e-09
-1e-09
-1e-09
-1e-09
-1e-09
-1e-09
-1e-09
-1e-09

SCALARS	sig_33	float	1
LOOKUP_TABLE	default
-1e-09
-1e-09
-1e-09
-1e-09
-1e-09
-1e-09
-1e-09
-1e-09
-1e-09
-1e-09
-1e-09
-1e-09
-1e-09
-1e-09
-1e-09
-1e-09
-1e-09
-1e-09
-1e-09
-1e-09
-1e-09
-1e-09
-1e-09
-1e-09
-1e-09
-1e-09
-1e-09

SCALARS vonMises	float	1
LOOKUP_TABLE	default
0.0
0.0
0.0
0.0
0.0
0.0
0.0
0.0
0.0
0.0
0.0
0.0
0.0
0.0
0.0
0.0
0.0
0.0
0.0
0.0
0.0
0.0
0.0
0.0
0.0
0.0
0.0
