# vtk DataFile Version 2.0
Results
ASCII
DATASET UNSTRUCTURED_GRID
POINTS         27           float
0.0	0.0	0.0	
50.0	0.0	0.0	
100.0	0.0	0.0	
0.0	40.0	0.0	
50.0	40.0	0.0	
100.0	40.0	0.0	
0.0	80.0	0.0	
50.0	80.0	0.0	
100.0	80.0	0.0	
0.0	0.0	70.0	
50.0	0.0	70.0	
100.0	0.0	70.0	
0.0	40.0	70.0	
50.0	40.0	70.0	
100.0	40.0	70.0	
0.0	80.0	70.0	
50.0	80.0	70.0	
100.0	80.0	70.0	
0.0	0.0	140.0	
50.0	0.0	140.0	
100.0	0.0	140.0	
0.0	40.0	140.0	
50.0	40.0	140.0	
100.0	40.0	140.0	
0.0	80.0	140.0	
50.0	80.0	140.0	
100.0	80.0	140.0	

CELLS	8	72
 8	0	1	4	3	9	10	13	12	
 8	1	2	5	4	10	11	14	13	
 8	4	5	8	7	13	14	17	16	
 8	3	4	7	6	12	13	16	15	
 8	9	10	13	12	18	19	22	21	
 8	10	11	14	13	19	20	23	22	
 8	13	14	17	16	22	23	26	25	
 8	12	13	16	15	21	22	25	24	

CELL_TYPES	8
 12
 12
 12
 12
 12
 12
 12
 12

POINT_DATA	27
SCALARS	u1	float 1
LOOKUP_TABLE	default
0.0
-0.012
-0.023
0.0
-0.012
-0.023
0.0
-0.012
-0.023
0.0
-0.012
-0.023
0.0
-0.012
-0.023
0.0
-0.012
-0.023
0.0
-0.012
-0.023
0.0
-0.012
-0.023
0.0
-0.012
-0.023

SCALARS	u2	float 1
LOOKUP_TABLE	default
0.0
0.0
0.0
-0.009
-0.009
-0.009
-0.019
-0.019
-0.019
0.0
-0.0
-0.0
-0.009
-0.009
-0.009
-0.019
-0.019
-0.019
-0.0
0.0
-0.0
-0.009
-0.009
-0.009
-0.019
-0.019
-0.019

SCALARS	u3	float 1
LOOKUP_TABLE	default
0.0
0.0
0.0
0.0
0.0
0.0
0.0
0.0
0.0
0.038
0.038
0.038
0.038
0.038
0.038
0.038
0.038
0.038
0.076
0.076
0.076
0.076
0.076
0.076
0.076
0.076
0.076

SCALARS	u4	float 1
LOOKUP_TABLE	default
299.448
299.448
299.448
299.448
299.448
299.448
299.448
299.448
299.448
299.448
299.448
299.448
299.448
299.448
299.448
299.448
299.448
299.448
299.448
299.448
299.448
299.448
299.448
299.448
299.448
299.448
299.448

VECTORS	u 	float 
0.0	0.0	0.0
-0.0116909636	0.0	0.0
-0.0233819271	0.0	0.0
0.0	-0.0093527709	0.0
-0.0116909636	-0.0093527709	0.0
-0.0233819271	-0.0093527709	0.0
0.0	-0.0187055417	0.0
-0.0116909636	-0.0187055417	0.0
-0.0233819271	-0.0187055417	0.0
0.0	0.0	0.0378622709
-0.0116909636	-0.0	0.0378622709
-0.0233819271	-0.0	0.0378622709
0.0	-0.0093527709	0.0378622709
-0.0116909636	-0.0093527709	0.0378622709
-0.0233819271	-0.0093527709	0.0378622709
0.0	-0.0187055417	0.0378622709
-0.0116909636	-0.0187055417	0.0378622709
-0.0233819271	-0.0187055417	0.0378622709
0.0	-0.0	0.0757245418
-0.0116909636	0.0	0.0757245418
-0.0233819271	-0.0	0.0757245418
0.0	-0.0093527709	0.0757245418
-0.0116909636	-0.0093527709	0.0757245418
-0.0233819271	-0.0093527709	0.0757245418
0.0	-0.0187055417	0.0757245418
-0.0116909636	-0.0187055417	0.0757245418
-0.0233819271	-0.0187055417	0.0757245418

VECTORS	v 	float 
0.0	0.0	0.0
0.0223372218	0.0	0.0
0.0446744435	0.0	0.0
0.0	0.0178697774	0.0
0.0223372218	0.0178697774	0.0
0.0446744435	0.0178697774	0.0
0.0	0.0357395548	0.0
0.0223372218	0.0357395548	0.0
0.0446744435	0.0357395548	0.0
0.0	0.0	-0.0770192984
0.0223372218	0.0	-0.0770192984
0.0446744435	0.0	-0.0770192984
-0.0	0.0178697774	-0.0770192984
0.0223372218	0.0178697774	-0.0770192984
0.0446744435	0.0178697774	-0.0770192984
-0.0	0.0357395548	-0.0770192984
0.0223372218	0.0357395548	-0.0770192984
0.0446744435	0.0357395548	-0.0770192984
0.0	-0.0	-0.1540385968
0.0223372218	0.0	-0.1540385968
0.0446744435	0.0	-0.1540385968
0.0	0.0178697774	-0.1540385968
0.0223372218	0.0178697774	-0.1540385968
0.0446744435	0.0178697774	-0.1540385968
0.0	0.0357395548	-0.1540385968
0.0223372218	0.0357395548	-0.1540385968
0.0446744435	0.0357395548	-0.1540385968

VECTORS	a 	float 
0.0	0.0	0.0
5.8545215696	0.0	0.0
11.7090431391	0.0	0.0
0.0	4.6836172557	0.0
5.8545215696	4.6836172557	0.0
11.7090431391	4.6836172557	0.0
0.0	9.3672345113	0.0
5.8545215696	9.3672345113	0.0
11.7090431391	9.3672345113	0.0
0.0	-0.0	-20.176351745
5.8545215696	0.0	-20.176351745
11.7090431391	-0.0	-20.176351745
-0.0	4.6836172557	-20.176351745
5.8545215696	4.6836172557	-20.176351745
11.7090431391	4.6836172557	-20.176351745
-0.0	9.3672345113	-20.176351745
5.8545215696	9.3672345113	-20.176351745
11.7090431391	9.3672345113	-20.176351745
0.0	-0.0	-40.3527034901
5.8545215696	-0.0	-40.3527034901
11.7090431391	0.0	-40.3527034901
0.0	4.6836172556	-40.3527034901
5.8545215696	4.6836172557	-40.3527034901
11.7090431391	4.6836172557	-40.3527034901
0.0	9.3672345113	-40.3527034901
5.8545215696	9.3672345113	-40.3527034901
11.7090431391	9.3672345113	-40.3527034901

SCALARS	theta	float 1
LOOKUP_TABLE	default
299.4481224342
299.4481224342
299.4481224342
299.4481224342
299.4481224342
299.4481224342
299.4481224342
299.4481224342
299.4481224342
299.4481224342
299.4481224342
299.4481224342
299.4481224342
299.4481224342
299.4481224342
299.4481224342
299.4481224342
299.4481224342
299.4481224342
299.4481224342
299.4481224342
299.4481224342
299.4481224342
299.4481224342
299.4481224342
299.4481224342
299.4481224342

SCALARS	sig_11	float	1
LOOKUP_TABLE	default
-2.3e-09
-2.3e-09
-2.3e-09
-2.3e-09
-2.3e-09
-2.3e-09
-2.3e-09
-2.3e-09
-2.3e-09
-2.4e-09
-2.3e-09
-2.3e-09
-2.3e-09
-2.3e-09
-2.3e-09
-2.3e-09
-2.3e-09
-2.3e-09
-2.4e-09
-2.3e-09
-2.3e-09
-2.4e-09
-2.3e-09
-2.3e-09
-2.4e-09
-2.3e-09
-2.3e-09

SCALARS	sig_22	float	1
LOOKUP_TABLE	default
-2.3e-09
-2.3e-09
-2.3e-09
-2.3e-09
-2.3e-09
-2.3e-09
-2.3e-09
-2.3e-09
-2.3e-09
-2.4e-09
-2.3e-09
-2.3e-09
-2.3e-09
-2.3e-09
-2.3e-09
-2.3e-09
-2.3e-09
-2.3e-09
-2.4e-09
-2.3e-09
-2.3e-09
-2.4e-09
-2.3e-09
-2.3e-09
-2.4e-09
-2.3e-09
-2.3e-09

SCALARS	sig_33	float	1
LOOKUP_TABLE	default
124.9908485653
124.9908485653
124.9908485653
124.9908485653
124.9908485653
124.9908485653
124.9908485653
124.9908485653
124.9908485653
124.9908485653
124.9908485653
124.9908485653
124.9908485653
124.9908485653
124.9908485653
124.9908485653
124.9908485653
124.9908485653
124.9908485653
124.9908485653
124.9908485653
124.9908485653
124.9908485653
124.9908485653
124.9908485653
124.9908485653
124.9908485653

SCALARS vonMises	float	1
LOOKUP_TABLE	default
88.3818766084
88.3818766084
88.3818766084
88.3818766084
88.3818766084
88.3818766084
88.3818766084
88.3818766084
88.3818766084
88.3818766084
88.3818766084
88.3818766084
88.3818766084
88.3818766084
88.3818766084
88.3818766084
88.3818766084
88.3818766084
88.3818766084
88.3818766084
88.3818766084
88.3818766084
88.3818766084
88.3818766084
88.3818766084
88.3818766084
88.3818766084
