# vtk DataFile Version 2.0
Results
ASCII
DATASET UNSTRUCTURED_GRID
POINTS         27           float
0.0	0.0	0.0	
50.0	0.0	0.0	
100.0	0.0	0.0	
0.0	40.0	0.0	
50.0	40.0	0.0	
100.0	40.0	0.0	
0.0	80.0	0.0	
50.0	80.0	0.0	
100.0	80.0	0.0	
0.0	0.0	70.0	
50.0	0.0	70.0	
100.0	0.0	70.0	
0.0	40.0	70.0	
50.0	40.0	70.0	
100.0	40.0	70.0	
0.0	80.0	70.0	
50.0	80.0	70.0	
100.0	80.0	70.0	
0.0	0.0	140.0	
50.0	0.0	140.0	
100.0	0.0	140.0	
0.0	40.0	140.0	
50.0	40.0	140.0	
100.0	40.0	140.0	
0.0	80.0	140.0	
50.0	80.0	140.0	
100.0	80.0	140.0	

CELLS	8	72
 8	0	1	4	3	9	10	13	12	
 8	1	2	5	4	10	11	14	13	
 8	4	5	8	7	13	14	17	16	
 8	3	4	7	6	12	13	16	15	
 8	9	10	13	12	18	19	22	21	
 8	10	11	14	13	19	20	23	22	
 8	13	14	17	16	22	23	26	25	
 8	12	13	16	15	21	22	25	24	

CELL_TYPES	8
 12
 12
 12
 12
 12
 12
 12
 12

POINT_DATA	27
SCALARS	u1	float 1
LOOKUP_TABLE	default
0.0
-0.012
-0.023
0.0
-0.012
-0.023
0.0
-0.012
-0.023
-0.0
-0.012
-0.023
-0.0
-0.012
-0.023
0.0
-0.012
-0.023
-0.0
-0.012
-0.023
-0.0
-0.012
-0.023
-0.0
-0.012
-0.023

SCALARS	u2	float 1
LOOKUP_TABLE	default
0.0
0.0
0.0
-0.009
-0.009
-0.009
-0.019
-0.019
-0.019
0.0
0.0
-0.0
-0.009
-0.009
-0.009
-0.019
-0.019
-0.019
0.0
0.0
-0.0
-0.009
-0.009
-0.009
-0.019
-0.019
-0.019

SCALARS	u3	float 1
LOOKUP_TABLE	default
0.0
0.0
0.0
0.0
0.0
0.0
0.0
0.0
0.0
0.038
0.038
0.038
0.038
0.038
0.038
0.038
0.038
0.038
0.076
0.076
0.076
0.076
0.076
0.076
0.076
0.076
0.076

SCALARS	u4	float 1
LOOKUP_TABLE	default
299.45
299.45
299.45
299.45
299.45
299.45
299.45
299.45
299.45
299.45
299.45
299.45
299.45
299.45
299.45
299.45
299.45
299.45
299.45
299.45
299.45
299.45
299.45
299.45
299.45
299.45
299.45

VECTORS	u 	float 
0.0	0.0	0.0
-0.0116833565	0.0	0.0
-0.0233667129	0.0	0.0
0.0	-0.0093466852	0.0
-0.0116833565	-0.0093466852	0.0
-0.0233667129	-0.0093466852	0.0
0.0	-0.0186933703	0.0
-0.0116833565	-0.0186933703	0.0
-0.0233667129	-0.0186933703	0.0
-0.0	0.0	0.0378729209
-0.0116833565	0.0	0.0378729209
-0.0233667129	-0.0	0.0378729209
-0.0	-0.0093466852	0.0378729209
-0.0116833565	-0.0093466852	0.0378729209
-0.0233667129	-0.0093466852	0.0378729209
0.0	-0.0186933703	0.0378729209
-0.0116833565	-0.0186933703	0.0378729209
-0.0233667129	-0.0186933703	0.0378729209
-0.0	0.0	0.0757458417
-0.0116833565	0.0	0.0757458417
-0.0233667129	-0.0	0.0757458417
-0.0	-0.0093466852	0.0757458417
-0.0116833565	-0.0093466852	0.0757458417
-0.0233667129	-0.0093466852	0.0757458417
-0.0	-0.0186933703	0.0757458417
-0.0116833565	-0.0186933703	0.0757458417
-0.0233667129	-0.0186933703	0.0757458417

VECTORS	v 	float 
0.0	0.0	0.0
-0.0223524317	0.0	0.0
-0.0447048634	0.0	0.0
0.0	-0.0178819454	0.0
-0.0223524317	-0.0178819454	0.0
-0.0447048634	-0.0178819454	0.0
0.0	-0.0357638907	0.0
-0.0223524317	-0.0357638907	0.0
-0.0447048634	-0.0357638907	0.0
-0.0	-0.0	0.0769979879
-0.0223524317	-0.0	0.0769979879
-0.0447048634	-0.0	0.0769979879
0.0	-0.0178819454	0.0769979879
-0.0223524317	-0.0178819454	0.0769979879
-0.0447048634	-0.0178819454	0.0769979879
0.0	-0.0357638907	0.0769979879
-0.0223524317	-0.0357638907	0.0769979879
-0.0447048634	-0.0357638907	0.0769979879
-0.0	0.0	0.1539959759
-0.0223524317	-0.0	0.1539959759
-0.0447048634	-0.0	0.1539959759
-0.0	-0.0178819454	0.1539959759
-0.0223524317	-0.0178819454	0.1539959759
-0.0447048634	-0.0178819454	0.1539959759
-0.0	-0.0357638907	0.1539959759
-0.0223524317	-0.0357638907	0.1539959759
-0.0447048634	-0.0357638907	0.1539959759

VECTORS	a 	float 
0.0	0.0	0.0
-5.7651422626	0.0	0.0
-11.5302845252	0.0	0.0
0.0	-4.6121138101	0.0
-5.7651422626	-4.6121138101	0.0
-11.5302845252	-4.6121138101	0.0
0.0	-9.2242276202	0.0
-5.7651422626	-9.2242276202	0.0
-11.5302845252	-9.2242276202	0.0
-0.0	0.0	19.8683171724
-5.7651422626	-0.0	19.8683171724
-11.5302845252	0.0	19.8683171724
0.0	-4.6121138101	19.8683171724
-5.7651422626	-4.6121138101	19.8683171724
-11.5302845252	-4.6121138101	19.8683171724
0.0	-9.2242276202	19.8683171724
-5.7651422626	-9.2242276202	19.8683171724
-11.5302845252	-9.2242276202	19.8683171724
-0.0	0.0	39.7366343448
-5.7651422626	0.0	39.7366343448
-11.5302845252	-0.0	39.7366343448
-0.0	-4.6121138101	39.7366343448
-5.7651422626	-4.6121138101	39.7366343448
-11.5302845252	-4.6121138101	39.7366343448
-0.0	-9.2242276202	39.7366343448
-5.7651422626	-9.2242276202	39.7366343448
-11.5302845252	-9.2242276202	39.7366343448

SCALARS	theta	float 1
LOOKUP_TABLE	default
299.4496438873
299.4496438873
299.4496438873
299.4496438873
299.4496438873
299.4496438873
299.4496438873
299.4496438873
299.4496438873
299.4496438873
299.4496438873
299.4496438873
299.4496438873
299.4496438873
299.4496438873
299.4496438873
299.4496438873
299.4496438873
299.4496438873
299.4496438873
299.4496438873
299.4496438873
299.4496438873
299.4496438873
299.4496438873
299.4496438873
299.4496438873

SCALARS	sig_11	float	1
LOOKUP_TABLE	default
-2.4e-09
-2.3e-09
-2.3e-09
-2.4e-09
-2.4e-09
-2.3e-09
-2.4e-09
-2.4e-09
-2.3e-09
-2.4e-09
-2.3e-09
-2.3e-09
-2.4e-09
-2.3e-09
-2.3e-09
-2.3e-09
-2.3e-09
-2.4e-09
-2.4e-09
-2.3e-09
-2.3e-09
-2.4e-09
-2.3e-09
-2.3e-09
-2.4e-09
-2.3e-09
-2.3e-09

SCALARS	sig_22	float	1
LOOKUP_TABLE	default
-2.4e-09
-2.4e-09
-2.3e-09
-2.4e-09
-2.4e-09
-2.3e-09
-2.4e-09
-2.4e-09
-2.3e-09
-2.3e-09
-2.3e-09
-2.3e-09
-2.3e-09
-2.3e-09
-2.3e-09
-2.3e-09
-2.3e-09
-2.3e-09
-2.3e-09
-2.3e-09
-2.3e-09
-2.3e-09
-2.3e-09
-2.3e-09
-2.3e-09
-2.3e-09
-2.3e-09

SCALARS	sig_33	float	1
LOOKUP_TABLE	default
124.9907916142
124.9907916142
124.9907916142
124.9907916142
124.9907916142
124.9907916142
124.9907916142
124.9907916142
124.9907916142
124.9907916142
124.9907916142
124.9907916142
124.9907916142
124.9907916142
124.9907916142
124.9907916142
124.9907916142
124.9907916142
124.9907916142
124.9907916142
124.9907916142
124.9907916142
124.9907916142
124.9907916142
124.9907916142
124.9907916142
124.9907916142

SCALARS vonMises	float	1
LOOKUP_TABLE	default
88.3818363379
88.3818363379
88.3818363379
88.3818363379
88.3818363379
88.3818363379
88.3818363379
88.3818363379
88.3818363379
88.3818363379
88.3818363379
88.3818363379
88.3818363379
88.3818363379
88.3818363379
88.3818363379
88.3818363379
88.3818363379
88.3818363379
88.3818363379
88.3818363379
88.3818363379
88.3818363379
88.3818363379
88.3818363379
88.381836338
88.3818363379
