# vtk DataFile Version 2.0
Results
ASCII
DATASET UNSTRUCTURED_GRID
POINTS         27           float
0.0	0.0	0.0	
50.0	0.0	0.0	
100.0	0.0	0.0	
0.0	40.0	0.0	
50.0	40.0	0.0	
100.0	40.0	0.0	
0.0	80.0	0.0	
50.0	80.0	0.0	
100.0	80.0	0.0	
0.0	0.0	70.0	
50.0	0.0	70.0	
100.0	0.0	70.0	
0.0	40.0	70.0	
50.0	40.0	70.0	
100.0	40.0	70.0	
0.0	80.0	70.0	
50.0	80.0	70.0	
100.0	80.0	70.0	
0.0	0.0	140.0	
50.0	0.0	140.0	
100.0	0.0	140.0	
0.0	40.0	140.0	
50.0	40.0	140.0	
100.0	40.0	140.0	
0.0	80.0	140.0	
50.0	80.0	140.0	
100.0	80.0	140.0	

CELLS	8	72
 8	0	1	4	3	9	10	13	12	
 8	1	2	5	4	10	11	14	13	
 8	4	5	8	7	13	14	17	16	
 8	3	4	7	6	12	13	16	15	
 8	9	10	13	12	18	19	22	21	
 8	10	11	14	13	19	20	23	22	
 8	13	14	17	16	22	23	26	25	
 8	12	13	16	15	21	22	25	24	

CELL_TYPES	8
 12
 12
 12
 12
 12
 12
 12
 12

POINT_DATA	27
SCALARS	u1	float 1
LOOKUP_TABLE	default
0.0
-0.011
-0.023
0.0
-0.011
-0.023
0.0
-0.011
-0.023
0.0
-0.011
-0.023
0.0
-0.011
-0.023
0.0
-0.011
-0.023
-0.0
-0.011
-0.023
-0.0
-0.011
-0.023
-0.0
-0.011
-0.023

SCALARS	u2	float 1
LOOKUP_TABLE	default
0.0
0.0
0.0
-0.009
-0.009
-0.009
-0.018
-0.018
-0.018
0.0
0.0
0.0
-0.009
-0.009
-0.009
-0.018
-0.018
-0.018
0.0
0.0
0.0
-0.009
-0.009
-0.009
-0.018
-0.018
-0.018

SCALARS	u3	float 1
LOOKUP_TABLE	default
0.0
0.0
0.0
0.0
0.0
0.0
0.0
0.0
0.0
0.038
0.038
0.038
0.038
0.038
0.038
0.038
0.038
0.038
0.077
0.077
0.077
0.077
0.077
0.077
0.077
0.077
0.077

SCALARS	u4	float 1
LOOKUP_TABLE	default
299.514
299.514
299.514
299.514
299.514
299.514
299.514
299.514
299.514
299.514
299.514
299.514
299.514
299.514
299.514
299.514
299.514
299.514
299.514
299.514
299.514
299.514
299.514
299.514
299.514
299.514
299.514

VECTORS	u 	float 
0.0	0.0	0.0
-0.0113640577	0.0	0.0
-0.0227281154	0.0	0.0
0.0	-0.0090912461	0.0
-0.0113640577	-0.0090912461	0.0
-0.0227281154	-0.0090912461	0.0
0.0	-0.0181824923	0.0
-0.0113640577	-0.0181824923	0.0
-0.0227281154	-0.0181824923	0.0
0.0	0.0	0.0383199385
-0.0113640577	0.0	0.0383199385
-0.0227281154	0.0	0.0383199385
0.0	-0.0090912461	0.0383199385
-0.0113640577	-0.0090912461	0.0383199385
-0.0227281154	-0.0090912461	0.0383199385
0.0	-0.0181824923	0.0383199385
-0.0113640577	-0.0181824923	0.0383199385
-0.0227281154	-0.0181824923	0.0383199385
-0.0	0.0	0.076639877
-0.0113640577	0.0	0.076639877
-0.0227281154	0.0	0.076639877
-0.0	-0.0090912461	0.076639877
-0.0113640577	-0.0090912461	0.076639877
-0.0227281154	-0.0090912461	0.076639877
-0.0	-0.0181824923	0.076639877
-0.0113640577	-0.0181824923	0.076639877
-0.0227281154	-0.0181824923	0.076639877

VECTORS	v 	float 
0.0	0.0	0.0
-0.0223528339	0.0	0.0
-0.0447056679	0.0	0.0
0.0	-0.0178822672	0.0
-0.0223528339	-0.0178822672	0.0
-0.0447056679	-0.0178822672	0.0
0.0	-0.0357645343	0.0
-0.0223528339	-0.0357645343	0.0
-0.0447056679	-0.0357645343	0.0
-0.0	0.0	0.0769974235
-0.0223528339	-0.0	0.0769974235
-0.0447056679	0.0	0.0769974235
0.0	-0.0178822672	0.0769974235
-0.0223528339	-0.0178822672	0.0769974235
-0.0447056679	-0.0178822672	0.0769974235
0.0	-0.0357645343	0.0769974235
-0.0223528339	-0.0357645343	0.0769974235
-0.0447056679	-0.0357645343	0.0769974235
-0.0	0.0	0.1539948469
-0.0223528339	-0.0	0.1539948469
-0.0447056679	-0.0	0.1539948469
0.0	-0.0178822672	0.1539948469
-0.0223528339	-0.0178822672	0.1539948469
-0.0447056679	-0.0178822672	0.1539948469
0.0	-0.0357645343	0.1539948469
-0.0223528339	-0.0357645343	0.1539948469
-0.0447056679	-0.0357645343	0.1539948469

VECTORS	a 	float 
0.0	0.0	0.0
-2.0111768311	0.0	0.0
-4.0223536621	0.0	0.0
0.0	-1.6089414648	0.0
-2.0111768311	-1.6089414648	0.0
-4.0223536621	-1.6089414648	0.0
0.0	-3.2178829297	0.0
-2.0111768311	-3.2178829297	0.0
-4.0223536621	-3.2178829297	0.0
-0.0	0.0	6.9309135927
-2.0111768311	-0.0	6.9309135927
-4.0223536621	0.0	6.9309135927
-0.0	-1.6089414648	6.9309135927
-2.0111768311	-1.6089414648	6.9309135927
-4.0223536621	-1.6089414648	6.9309135927
0.0	-3.2178829297	6.9309135927
-2.0111768311	-3.2178829297	6.9309135927
-4.0223536621	-3.2178829297	6.9309135927
-0.0	0.0	13.8618271854
-2.0111768311	0.0	13.8618271854
-4.0223536621	-0.0	13.8618271854
-0.0	-1.6089414648	13.8618271854
-2.0111768311	-1.6089414648	13.8618271854
-4.0223536621	-1.6089414648	13.8618271854
-0.0	-3.2178829297	13.8618271854
-2.0111768311	-3.2178829297	13.8618271854
-4.0223536621	-3.2178829297	13.8618271854

SCALARS	theta	float 1
LOOKUP_TABLE	default
299.5135045003
299.5135045003
299.5135045003
299.5135045003
299.5135045003
299.5135045003
299.5135045003
299.5135045003
299.5135045003
299.5135045003
299.5135045003
299.5135045003
299.5135045003
299.5135045003
299.5135045003
299.5135045003
299.5135045003
299.5135045003
299.5135045003
299.5135045003
299.5135045003
299.5135045003
299.5135045003
299.5135045003
299.5135045003
299.5135045003
299.5135045003

SCALARS	sig_11	float	1
LOOKUP_TABLE	default
-2.3e-09
-2.3e-09
-2.3e-09
-2.3e-09
-2.3e-09
-2.3e-09
-2.3e-09
-2.3e-09
-2.3e-09
-2.3e-09
-2.3e-09
-2.3e-09
-2.3e-09
-2.3e-09
-2.3e-09
-2.3e-09
-2.3e-09
-2.3e-09
-2.3e-09
-2.3e-09
-2.3e-09
-2.3e-09
-2.3e-09
-2.3e-09
-2.3e-09
-2.3e-09
-2.3e-09

SCALARS	sig_22	float	1
LOOKUP_TABLE	default
-2.3e-09
-2.3e-09
-2.3e-09
-2.3e-09
-2.3e-09
-2.3e-09
-2.3e-09
-2.3e-09
-2.3e-09
-2.3e-09
-2.3e-09
-2.3e-09
-2.3e-09
-2.3e-09
-2.3e-09
-2.3e-09
-2.3e-09
-2.3e-09
-2.3e-09
-2.3e-09
-2.3e-09
-2.3e-09
-2.3e-09
-2.3e-09
-2.3e-09
-2.3e-09
-2.3e-09

SCALARS	sig_33	float	1
LOOKUP_TABLE	default
124.9883980032
124.9883980032
124.9883980032
124.9883980032
124.9883980032
124.9883980032
124.9883980032
124.9883980032
124.9883980032
124.9883980032
124.9883980032
124.9883980032
124.9883980032
124.9883980032
124.9883980032
124.9883980032
124.9883980032
124.9883980032
124.9883980032
124.9883980032
124.9883980032
124.9883980032
124.9883980032
124.9883980032
124.9883980032
124.9883980032
124.9883980032

SCALARS vonMises	float	1
LOOKUP_TABLE	default
88.3801437994
88.3801437994
88.3801437994
88.3801437994
88.3801437994
88.3801437994
88.3801437994
88.3801437994
88.3801437994
88.3801437994
88.3801437994
88.3801437994
88.3801437994
88.3801437994
88.3801437994
88.3801437994
88.3801437994
88.3801437994
88.3801437994
88.3801437994
88.3801437994
88.3801437994
88.3801437994
88.3801437994
88.3801437994
88.3801437994
88.3801437994
