# vtk DataFile Version 2.0
Results
ASCII
DATASET UNSTRUCTURED_GRID
POINTS         27           float
0.0	0.0	0.0	
50.0	0.0	0.0	
100.0	0.0	0.0	
0.0	40.0	0.0	
50.0	40.0	0.0	
100.0	40.0	0.0	
0.0	80.0	0.0	
50.0	80.0	0.0	
100.0	80.0	0.0	
0.0	0.0	70.0	
50.0	0.0	70.0	
100.0	0.0	70.0	
0.0	40.0	70.0	
50.0	40.0	70.0	
100.0	40.0	70.0	
0.0	80.0	70.0	
50.0	80.0	70.0	
100.0	80.0	70.0	
0.0	0.0	140.0	
50.0	0.0	140.0	
100.0	0.0	140.0	
0.0	40.0	140.0	
50.0	40.0	140.0	
100.0	40.0	140.0	
0.0	80.0	140.0	
50.0	80.0	140.0	
100.0	80.0	140.0	

CELLS	8	72
 8	0	1	4	3	9	10	13	12	
 8	1	2	5	4	10	11	14	13	
 8	4	5	8	7	13	14	17	16	
 8	3	4	7	6	12	13	16	15	
 8	9	10	13	12	18	19	22	21	
 8	10	11	14	13	19	20	23	22	
 8	13	14	17	16	22	23	26	25	
 8	12	13	16	15	21	22	25	24	

CELL_TYPES	8
 12
 12
 12
 12
 12
 12
 12
 12

POINT_DATA	27
SCALARS	u1	float 1
LOOKUP_TABLE	default
0.0
-0.001
-0.002
0.0
-0.001
-0.002
0.0
-0.001
-0.002
0.0
-0.001
-0.002
0.0
-0.001
-0.002
0.0
-0.001
-0.002
0.0
-0.001
-0.002
0.0
-0.001
-0.002
0.0
-0.001
-0.002

SCALARS	u2	float 1
LOOKUP_TABLE	default
0.0
0.0
0.0
-0.001
-0.001
-0.001
-0.001
-0.001
-0.001
0.0
-0.0
0.0
-0.001
-0.001
-0.001
-0.001
-0.001
-0.001
-0.0
-0.0
-0.0
-0.001
-0.001
-0.001
-0.001
-0.001
-0.001

SCALARS	u3	float 1
LOOKUP_TABLE	default
0.0
0.0
0.0
0.0
0.0
0.0
0.0
0.0
0.0
-0.001
-0.001
-0.001
-0.001
-0.001
-0.001
-0.001
-0.001
-0.001
-0.002
-0.002
-0.002
-0.002
-0.002
-0.002
-0.002
-0.002
-0.002

SCALARS	u4	float 1
LOOKUP_TABLE	default
299.846
299.846
299.846
299.846
299.846
299.846
299.846
299.846
299.846
299.846
299.846
299.846
299.846
299.846
299.846
299.846
299.846
299.846
299.846
299.846
299.846
299.846
299.846
299.846
299.846
299.846
299.846

VECTORS	u 	float 
0.0	0.0	0.0
-0.0007683594	0.0	0.0
-0.0015367187	0.0	0.0
0.0	-0.0006146875	0.0
-0.0007683594	-0.0006146875	0.0
-0.0015367187	-0.0006146875	0.0
0.0	-0.001229375	0.0
-0.0007683594	-0.001229375	0.0
-0.0015367187	-0.001229375	0.0
0.0	0.0	-0.0010757031
-0.0007683594	-0.0	-0.0010757031
-0.0015367187	0.0	-0.0010757031
0.0	-0.0006146875	-0.0010757031
-0.0007683594	-0.0006146875	-0.0010757031
-0.0015367187	-0.0006146875	-0.0010757031
0.0	-0.001229375	-0.0010757031
-0.0007683594	-0.001229375	-0.0010757031
-0.0015367187	-0.001229375	-0.0010757031
0.0	-0.0	-0.0021514062
-0.0007683594	-0.0	-0.0021514062
-0.0015367187	-0.0	-0.0021514062
0.0	-0.0006146875	-0.0021514062
-0.0007683594	-0.0006146875	-0.0021514062
-0.0015367187	-0.0006146875	-0.0021514062
0.0	-0.001229375	-0.0021514062
-0.0007683594	-0.001229375	-0.0021514062
-0.0015367187	-0.001229375	-0.0021514062

VECTORS	v 	float 
0.0	0.0	0.0
-2.56203e-05	0.0	0.0
-5.12405e-05	0.0	0.0
0.0	-2.04962e-05	0.0
-2.56203e-05	-2.04962e-05	0.0
-5.12405e-05	-2.04962e-05	0.0
0.0	-4.09924e-05	0.0
-2.56203e-05	-4.09924e-05	0.0
-5.12405e-05	-4.09924e-05	0.0
0.0	-0.0	0.0001336294
-2.56203e-05	0.0	0.0001336294
-5.12405e-05	-0.0	0.0001336294
-0.0	-2.04962e-05	0.0001336294
-2.56203e-05	-2.04962e-05	0.0001336294
-5.12405e-05	-2.04962e-05	0.0001336294
-0.0	-4.09924e-05	0.0001336294
-2.56203e-05	-4.09924e-05	0.0001336294
-5.12405e-05	-4.09924e-05	0.0001336294
0.0	-0.0	0.0002672588
-2.56203e-05	-0.0	0.0002672588
-5.12405e-05	0.0	0.0002672588
0.0	-2.04962e-05	0.0002672588
-2.56203e-05	-2.04962e-05	0.0002672588
-5.12405e-05	-2.04962e-05	0.0002672588
0.0	-4.09924e-05	0.0002672588
-2.56203e-05	-4.09924e-05	0.0002672588
-5.12405e-05	-4.09924e-05	0.0002672588

VECTORS	a 	float 
0.0	0.0	0.0
8.9204935336	0.0	0.0
17.8409870672	0.0	0.0
0.0	7.1363948269	0.0
8.9204935336	7.1363948269	0.0
17.8409870672	7.1363948269	0.0
0.0	14.2727896537	0.0
8.9204935336	14.2727896537	0.0
17.8409870671	14.2727896538	0.0
0.0	-0.0	-30.7119288991
8.9204935336	0.0	-30.7119288991
17.8409870672	-0.0	-30.7119288991
-0.0	7.1363948268	-30.711928899
8.9204935336	7.1363948269	-30.7119288991
17.8409870672	7.1363948269	-30.7119288991
-0.0	14.2727896537	-30.711928899
8.9204935336	14.2727896538	-30.7119288991
17.8409870672	14.2727896537	-30.7119288991
1e-10	-1e-10	-61.4238577981
8.9204935337	-0.0	-61.4238577982
17.8409870673	0.0	-61.4238577982
0.0	7.1363948268	-61.4238577981
8.9204935337	7.1363948269	-61.4238577982
17.8409870673	7.1363948269	-61.4238577982
0.0	14.2727896537	-61.4238577981
8.9204935336	14.2727896537	-61.4238577981
17.8409870673	14.2727896537	-61.4238577982

SCALARS	theta	float 1
LOOKUP_TABLE	default
299.8463253132
299.8463253132
299.8463253132
299.8463253132
299.8463253132
299.8463253132
299.8463253132
299.8463253132
299.8463253132
299.8463253132
299.8463253132
299.8463253132
299.8463253132
299.8463253132
299.8463253132
299.8463253132
299.8463253132
299.8463253132
299.8463253132
299.8463253132
299.8463253132
299.8463253132
299.8463253132
299.8463253132
299.8463253132
299.8463253132
299.8463253132

SCALARS	sig_11	float	1
LOOKUP_TABLE	default
1e-09
1e-09
1e-09
1e-09
1e-09
1e-09
1e-09
1e-09
1e-09
1e-09
1e-09
1e-09
1e-09
1e-09
1e-09
1e-09
1e-09
1e-09
1e-09
1e-09
1e-09
1e-09
1e-09
1e-09
1e-09
1e-09
1e-09

SCALARS	sig_22	float	1
LOOKUP_TABLE	default
1e-09
1e-09
1e-09
1e-09
1e-09
1e-09
1e-09
1e-09
1e-09
1e-09
1e-09
1e-09
1e-09
1e-09
1e-09
1e-09
1e-09
1e-09
1e-09
1e-09
1e-09
1e-09
1e-09
1e-09
1e-09
1e-09
1e-09

SCALARS	sig_33	float	1
LOOKUP_TABLE	default
1e-09
1e-09
1e-09
1e-09
1e-09
1e-09
1e-09
1e-09
1e-09
1e-09
1e-09
1e-09
1e-09
1e-09
1e-09
1e-09
1e-09
1e-09
1e-09
1e-09
1e-09
1e-09
1e-09
1e-09
1e-09
1e-09
1e-09

SCALARS vonMises	float	1
LOOKUP_TABLE	default
0.0
0.0
0.0
0.0
0.0
0.0
0.0
0.0
0.0
0.0
0.0
0.0
0.0
0.0
0.0
0.0
0.0
0.0
0.0
0.0
0.0
0.0
0.0
0.0
0.0
0.0
0.0
